# 
!wB97X-D3 def2-TZVP def2/J RIJCOSX Grid5 FinalGrid6 TightSCF
%pal 
 nprocs 24
end
%tddft
  Mode sTDDFT
  nroots 2
  Ethresh 10.0
  maxcore 5000
  triplets true
end
* xyz 0 1 
C 4.34400260 3.07660043 1.02212692
C 3.86757934 1.81853043 0.66245115
C 4.78822418 0.80665791 0.32975699
C 6.17748074 1.11091882 0.38538519
C 6.66003216 2.37984035 0.74066048
C 5.72109375 3.35829006 1.05720890
C 4.68549538 -0.59223718 -0.05635589
C 6.02582189 -1.06108086 -0.19443589
N 6.90175310 -0.02170654 0.05725778
C 6.34518082 -2.38880385 -0.51449911
C 5.28632758 -3.27810332 -0.68561334
C 3.95979055 -2.84906677 -0.55466739
C 3.62159622 -1.51415753 -0.25965730
H 3.15952298 -3.56886167 -0.71093675
H 7.91186946 -0.09007316 0.03916637
H 5.48800885 -4.31776107 -0.92701084
H 2.79874263 1.62756202 0.63712337
H 7.72629340 2.58746038 0.77197707
H 6.05685122 4.35322245 1.33751834
H 3.63744648 3.86122516 1.27877628
S -2.81317253 0.11511646 -0.09292858
C -4.06008462 -1.07574075 0.30638654
N -3.56659191 -2.28419191 0.56188405
N -2.20712547 -2.35432045 0.46353530
C -1.64677629 -1.19572261 0.13040107
C -0.22133857 -1.02113511 -0.03309067
N 0.34786530 0.12885967 -0.36984721
N 1.71012620 0.05150505 -0.46391864
C 2.20260976 -1.14874747 -0.19688173
S 0.93710276 -2.33859003 0.19706917
C -5.62710824 2.73607668 -0.49992955
N -5.11878036 1.53511792 -0.24702106
C -5.99440391 0.53198139 0.07484174
C -7.40166029 0.78488517 0.13232093
N -7.90363091 2.03697669 -0.13364819
C -7.02662523 2.98485016 -0.44210721
C -8.28773531 -0.27608064 0.46936288
C -7.78467786 -1.53454549 0.73675946
C -6.39948879 -1.78930636 0.68156887
C -5.49023985 -0.78356905 0.35620146
H -6.02754829 -2.78751099 0.89594566
H -8.46089537 -2.34552657 0.99427976
H -7.41606137 3.98732850 -0.65618363
H -4.92821712 3.53988028 -0.75770012
H 7.37774507 -2.71144466 -0.61382641
H -9.35640014 -0.08430194 0.51309379
*
$new_job
# 
!wB97X-D3 def2-TZVP def2/J RIJCOSX Grid5 FinalGrid6 TightSCF
%pal 
 nprocs 24
end
%elprop
   dipole     true
   quadrupole true
end
%tddft
  Mode sTDDFT
  nroots 2
  Ethresh 10.0
  maxcore 5000
end
* xyz 0 1 
C 4.34400260 3.07660043 1.02212692
C 3.86757934 1.81853043 0.66245115
C 4.78822418 0.80665791 0.32975699
C 6.17748074 1.11091882 0.38538519
C 6.66003216 2.37984035 0.74066048
C 5.72109375 3.35829006 1.05720890
C 4.68549538 -0.59223718 -0.05635589
C 6.02582189 -1.06108086 -0.19443589
N 6.90175310 -0.02170654 0.05725778
C 6.34518082 -2.38880385 -0.51449911
C 5.28632758 -3.27810332 -0.68561334
C 3.95979055 -2.84906677 -0.55466739
C 3.62159622 -1.51415753 -0.25965730
H 3.15952298 -3.56886167 -0.71093675
H 7.91186946 -0.09007316 0.03916637
H 5.48800885 -4.31776107 -0.92701084
H 2.79874263 1.62756202 0.63712337
H 7.72629340 2.58746038 0.77197707
H 6.05685122 4.35322245 1.33751834
H 3.63744648 3.86122516 1.27877628
S -2.81317253 0.11511646 -0.09292858
C -4.06008462 -1.07574075 0.30638654
N -3.56659191 -2.28419191 0.56188405
N -2.20712547 -2.35432045 0.46353530
C -1.64677629 -1.19572261 0.13040107
C -0.22133857 -1.02113511 -0.03309067
N 0.34786530 0.12885967 -0.36984721
N 1.71012620 0.05150505 -0.46391864
C 2.20260976 -1.14874747 -0.19688173
S 0.93710276 -2.33859003 0.19706917
C -5.62710824 2.73607668 -0.49992955
N -5.11878036 1.53511792 -0.24702106
C -5.99440391 0.53198139 0.07484174
C -7.40166029 0.78488517 0.13232093
N -7.90363091 2.03697669 -0.13364819
C -7.02662523 2.98485016 -0.44210721
C -8.28773531 -0.27608064 0.46936288
C -7.78467786 -1.53454549 0.73675946
C -6.39948879 -1.78930636 0.68156887
C -5.49023985 -0.78356905 0.35620146
H -6.02754829 -2.78751099 0.89594566
H -8.46089537 -2.34552657 0.99427976
H -7.41606137 3.98732850 -0.65618363
H -4.92821712 3.53988028 -0.75770012
H 7.37774507 -2.71144466 -0.61382641
H -9.35640014 -0.08430194 0.51309379
*
