# 
!wB97X-D3 def2-TZVP def2/J RIJCOSX Grid5 FinalGrid6 TightSCF
%pal 
 nprocs 24
end
%tddft
  Mode sTDDFT
  nroots 2
  Ethresh 10.0
  maxcore 5000
  triplets true
end
* xyz 0 1 
C -5.62217992 0.96708296 2.33945861
C -4.79258327 0.38976735 1.38180113
C -5.34833039 -0.49385595 0.43673440
C -6.74277816 -0.76983095 0.50706522
C -7.58231207 -0.18396361 1.46683129
C -7.00001010 0.68983136 2.38134000
C -4.82364291 -1.28903414 -0.66269658
C -5.93341826 -2.01845405 -1.18468438
N -7.07408337 -1.67976504 -0.48167089
C -5.81982478 -2.94132052 -2.23471847
C -4.54977180 -3.15127585 -2.76791283
C -3.44037043 -2.45259548 -2.27635162
C -3.54156131 -1.50348137 -1.24052772
H -2.46738174 -2.63119005 -2.72850498
H -7.99701687 -2.06372342 -0.64333038
H -4.41477391 -3.86257216 -3.57763124
H -3.73247751 0.62502137 1.36707635
H -8.64508726 -0.40888774 1.49647402
H -7.61827006 1.16289027 3.13968626
H -5.19819034 1.65054220 3.06994721
S 2.56316637 -0.88330491 -0.66602275
C 3.75043091 0.30273919 -0.08198662
N 3.19292318 1.41369773 0.38735625
N 1.83120987 1.41394037 0.32417570
C 1.32481542 0.30362099 -0.19481224
C -0.08928980 0.04981795 -0.37223664
N -1.04951997 0.90385465 -0.04445625
N -2.30486463 0.43347388 -0.30763607
C -2.33281990 -0.78179932 -0.83217308
S -0.69963192 -1.46232940 -1.06499584
S 10.51782856 0.36791833 0.26212478
C 8.95182053 1.18191169 0.55225568
S 9.10909488 2.80565446 1.28365341
C 10.88048148 2.78622666 1.35731140
C 11.51435036 1.69051494 0.89818286
C 7.75396271 0.62187035 0.24676815
S 6.18635928 1.43585998 0.53676924
C 5.18209303 0.10472884 -0.10362152
C 5.83914589 -0.99570447 -0.56370490
S 7.59726794 -1.00434061 -0.48567938
H 11.39193943 3.65071064 1.76654869
H 5.32754464 -1.86152765 -0.97359329
H -6.68700394 -3.47803864 -2.60895637
H 12.59266018 1.57381917 0.89624339
*
$new_job
# 
!wB97X-D3 def2-TZVP def2/J RIJCOSX Grid5 FinalGrid6 TightSCF
%pal 
 nprocs 24
end
%elprop
   dipole     true
   quadrupole true
end
%tddft
  Mode sTDDFT
  nroots 2
  Ethresh 10.0
  maxcore 5000
end
* xyz 0 1 
C -5.62217992 0.96708296 2.33945861
C -4.79258327 0.38976735 1.38180113
C -5.34833039 -0.49385595 0.43673440
C -6.74277816 -0.76983095 0.50706522
C -7.58231207 -0.18396361 1.46683129
C -7.00001010 0.68983136 2.38134000
C -4.82364291 -1.28903414 -0.66269658
C -5.93341826 -2.01845405 -1.18468438
N -7.07408337 -1.67976504 -0.48167089
C -5.81982478 -2.94132052 -2.23471847
C -4.54977180 -3.15127585 -2.76791283
C -3.44037043 -2.45259548 -2.27635162
C -3.54156131 -1.50348137 -1.24052772
H -2.46738174 -2.63119005 -2.72850498
H -7.99701687 -2.06372342 -0.64333038
H -4.41477391 -3.86257216 -3.57763124
H -3.73247751 0.62502137 1.36707635
H -8.64508726 -0.40888774 1.49647402
H -7.61827006 1.16289027 3.13968626
H -5.19819034 1.65054220 3.06994721
S 2.56316637 -0.88330491 -0.66602275
C 3.75043091 0.30273919 -0.08198662
N 3.19292318 1.41369773 0.38735625
N 1.83120987 1.41394037 0.32417570
C 1.32481542 0.30362099 -0.19481224
C -0.08928980 0.04981795 -0.37223664
N -1.04951997 0.90385465 -0.04445625
N -2.30486463 0.43347388 -0.30763607
C -2.33281990 -0.78179932 -0.83217308
S -0.69963192 -1.46232940 -1.06499584
S 10.51782856 0.36791833 0.26212478
C 8.95182053 1.18191169 0.55225568
S 9.10909488 2.80565446 1.28365341
C 10.88048148 2.78622666 1.35731140
C 11.51435036 1.69051494 0.89818286
C 7.75396271 0.62187035 0.24676815
S 6.18635928 1.43585998 0.53676924
C 5.18209303 0.10472884 -0.10362152
C 5.83914589 -0.99570447 -0.56370490
S 7.59726794 -1.00434061 -0.48567938
H 11.39193943 3.65071064 1.76654869
H 5.32754464 -1.86152765 -0.97359329
H -6.68700394 -3.47803864 -2.60895637
H 12.59266018 1.57381917 0.89624339
*
