# 
!wB97X-D3 def2-TZVP def2/J RIJCOSX Grid5 FinalGrid6 TightSCF
%pal 
 nprocs 24
end
%tddft
  Mode sTDDFT
  nroots 2
  Ethresh 10.0
  maxcore 5000
  triplets true
end
* xyz 0 1 
C -6.67170428 1.79464882 2.05117998
C -6.04172954 1.03905195 1.06558697
C -6.82855427 0.33594188 0.13356241
C -8.24503932 0.41914091 0.24477240
C -8.88239888 1.18540537 1.23259287
C -8.07311584 1.87280040 2.13360303
C -6.55206752 -0.55195958 -0.98537892
C -7.82379561 -0.97154930 -1.47726517
N -8.82244655 -0.36531532 -0.73824581
C -7.97604928 -1.87997946 -2.53505024
C -6.81507163 -2.39608104 -3.10697972
C -5.55209514 -2.00544811 -2.64532043
C -5.38167982 -1.07485549 -1.60199206
H -4.66869038 -2.41817851 -3.12719417
H -9.81644256 -0.50307850 -0.87352478
H -6.88617477 -3.10839890 -3.92394945
H -4.95737491 0.99963600 1.01924053
H -9.96630402 1.23504058 1.29355004
H -8.53059739 2.47660167 2.91293062
H -6.06875437 2.33997920 2.77213890
S 0.79570516 0.74022382 0.00015178
C -0.19590934 -0.56318902 -0.68603537
N 0.51057043 -1.62691119 -1.04823473
N 1.84911052 -1.49985201 -0.81964058
C 2.18430655 -0.33000178 -0.27633530
C -1.62875127 -0.45868269 -0.82747133
N -2.33007120 0.60947612 -0.46916459
N -3.67210019 0.47682791 -0.69795815
C -4.01842621 -0.68741343 -1.22510607
S -2.62047105 -1.75734463 -1.50591317
C 8.91946506 2.28298334 2.08115983
C 7.95289048 1.43560634 1.45721212
C 6.69139112 2.01805537 1.33817906
S 6.70480926 3.64876357 1.99827192
C 8.39442554 3.50706162 2.42038600
C 5.60880927 1.23866298 0.82110682
C 5.86533949 -0.03606532 0.32160620
C 7.29466295 -0.55818907 0.18469465
O 8.23257546 0.16809699 1.07625431
C 4.69054765 -0.70235312 -0.11232051
C 3.53182664 0.04620481 0.06012589
S 3.90117614 1.61780123 0.77629682
C 7.80429083 -0.33876999 -1.25976612
H 9.94904562 1.99794751 2.26334801
H 4.67926802 -1.69837787 -0.54097385
H 7.77415443 0.71775012 -1.51530329
H 8.82916618 -0.68728476 -1.36271867
H 7.18208070 -0.87929149 -1.96895229
C 7.40722563 -2.03743641 0.58638628
H 7.05722231 -2.18668039 1.60459273
H 6.81024746 -2.66062527 -0.07475695
H 8.44085799 -2.36915417 0.52811209
H -8.96062492 -2.17639652 -2.88562947
H 8.92536935 4.32515481 2.88963892
*
$new_job
# 
!wB97X-D3 def2-TZVP def2/J RIJCOSX Grid5 FinalGrid6 TightSCF
%pal 
 nprocs 24
end
%elprop
   dipole     true
   quadrupole true
end
%tddft
  Mode sTDDFT
  nroots 2
  Ethresh 10.0
  maxcore 5000
end
* xyz 0 1 
C -6.67170428 1.79464882 2.05117998
C -6.04172954 1.03905195 1.06558697
C -6.82855427 0.33594188 0.13356241
C -8.24503932 0.41914091 0.24477240
C -8.88239888 1.18540537 1.23259287
C -8.07311584 1.87280040 2.13360303
C -6.55206752 -0.55195958 -0.98537892
C -7.82379561 -0.97154930 -1.47726517
N -8.82244655 -0.36531532 -0.73824581
C -7.97604928 -1.87997946 -2.53505024
C -6.81507163 -2.39608104 -3.10697972
C -5.55209514 -2.00544811 -2.64532043
C -5.38167982 -1.07485549 -1.60199206
H -4.66869038 -2.41817851 -3.12719417
H -9.81644256 -0.50307850 -0.87352478
H -6.88617477 -3.10839890 -3.92394945
H -4.95737491 0.99963600 1.01924053
H -9.96630402 1.23504058 1.29355004
H -8.53059739 2.47660167 2.91293062
H -6.06875437 2.33997920 2.77213890
S 0.79570516 0.74022382 0.00015178
C -0.19590934 -0.56318902 -0.68603537
N 0.51057043 -1.62691119 -1.04823473
N 1.84911052 -1.49985201 -0.81964058
C 2.18430655 -0.33000178 -0.27633530
C -1.62875127 -0.45868269 -0.82747133
N -2.33007120 0.60947612 -0.46916459
N -3.67210019 0.47682791 -0.69795815
C -4.01842621 -0.68741343 -1.22510607
S -2.62047105 -1.75734463 -1.50591317
C 8.91946506 2.28298334 2.08115983
C 7.95289048 1.43560634 1.45721212
C 6.69139112 2.01805537 1.33817906
S 6.70480926 3.64876357 1.99827192
C 8.39442554 3.50706162 2.42038600
C 5.60880927 1.23866298 0.82110682
C 5.86533949 -0.03606532 0.32160620
C 7.29466295 -0.55818907 0.18469465
O 8.23257546 0.16809699 1.07625431
C 4.69054765 -0.70235312 -0.11232051
C 3.53182664 0.04620481 0.06012589
S 3.90117614 1.61780123 0.77629682
C 7.80429083 -0.33876999 -1.25976612
H 9.94904562 1.99794751 2.26334801
H 4.67926802 -1.69837787 -0.54097385
H 7.77415443 0.71775012 -1.51530329
H 8.82916618 -0.68728476 -1.36271867
H 7.18208070 -0.87929149 -1.96895229
C 7.40722563 -2.03743641 0.58638628
H 7.05722231 -2.18668039 1.60459273
H 6.81024746 -2.66062527 -0.07475695
H 8.44085799 -2.36915417 0.52811209
H -8.96062492 -2.17639652 -2.88562947
H 8.92536935 4.32515481 2.88963892
*
