# 
!wB97X-D3 def2-TZVP def2/J RIJCOSX Grid5 FinalGrid6 TightSCF
%pal 
 nprocs 24
end
%tddft
  Mode sTDDFT
  nroots 2
  Ethresh 10.0
  maxcore 5000
  triplets true
end
* xyz 0 1 
C 5.47734327 0.84263663 2.61203574
C 4.58814293 0.54704637 1.58192340
C 5.07624906 -0.05790801 0.40804726
C 6.46615261 -0.35306289 0.32671617
C 7.36549626 -0.04994217 1.36034868
C 6.84905630 0.55363471 2.50419012
C 4.47935257 -0.52815976 -0.83277795
C 5.54520456 -1.10010193 -1.58924875
N 6.72728663 -0.96936356 -0.88465218
C 5.35899767 -1.70908487 -2.83897794
C 4.05916512 -1.75979865 -3.33829521
C 2.99144172 -1.20920632 -2.61883106
C 3.16509421 -0.57146719 -1.37516009
H 1.99311808 -1.25445833 -3.04806782
H 7.63226707 -1.30330079 -1.19249981
H 3.86787346 -2.22873120 -4.29929530
H 3.53398428 0.78625197 1.68688056
H 8.42335559 -0.28259789 1.27155786
H 7.51494851 0.80329137 3.32608674
H 5.10567993 1.31069533 3.51944858
S -2.89007050 -0.08812504 -0.31121990
C -4.01945908 0.90113567 0.62828340
N -3.41549585 1.84422010 1.34382675
N -2.05663610 1.85357959 1.20602959
C -1.60595103 0.91588190 0.38151926
C -0.20626245 0.71431304 0.06639220
N 0.78666212 1.44441517 0.55449637
N 2.01836439 1.05385304 0.10559003
C 1.99379771 0.02246287 -0.72288876
S 0.33724497 -0.56262542 -1.03667283
C -7.69023540 1.36871396 1.40898142
C -8.27271710 0.35224994 0.63057408
C -7.45994510 -0.48255298 -0.14734023
C -6.06849503 -0.31112575 -0.15489521
C -5.46503041 0.70542145 0.62138008
C -6.30453474 1.53465380 1.39753340
O -5.31465599 -1.14174199 -0.92303827
O -8.01569637 -1.48794716 -0.91947154
O -9.62979247 0.13819451 0.59917597
H -5.85121533 2.31751914 1.99653528
H -5.91122377 -1.76187265 -1.37178130
H -8.97638333 -1.45470433 -0.78881177
H -10.07871103 0.77363905 1.17303969
H 6.19433486 -2.13317840 -3.38902002
H -8.31790279 2.01734766 2.01295330
*
$new_job
# 
!wB97X-D3 def2-TZVP def2/J RIJCOSX Grid5 FinalGrid6 TightSCF
%pal 
 nprocs 24
end
%elprop
   dipole     true
   quadrupole true
end
%tddft
  Mode sTDDFT
  nroots 2
  Ethresh 10.0
  maxcore 5000
end
* xyz 0 1 
C 5.47734327 0.84263663 2.61203574
C 4.58814293 0.54704637 1.58192340
C 5.07624906 -0.05790801 0.40804726
C 6.46615261 -0.35306289 0.32671617
C 7.36549626 -0.04994217 1.36034868
C 6.84905630 0.55363471 2.50419012
C 4.47935257 -0.52815976 -0.83277795
C 5.54520456 -1.10010193 -1.58924875
N 6.72728663 -0.96936356 -0.88465218
C 5.35899767 -1.70908487 -2.83897794
C 4.05916512 -1.75979865 -3.33829521
C 2.99144172 -1.20920632 -2.61883106
C 3.16509421 -0.57146719 -1.37516009
H 1.99311808 -1.25445833 -3.04806782
H 7.63226707 -1.30330079 -1.19249981
H 3.86787346 -2.22873120 -4.29929530
H 3.53398428 0.78625197 1.68688056
H 8.42335559 -0.28259789 1.27155786
H 7.51494851 0.80329137 3.32608674
H 5.10567993 1.31069533 3.51944858
S -2.89007050 -0.08812504 -0.31121990
C -4.01945908 0.90113567 0.62828340
N -3.41549585 1.84422010 1.34382675
N -2.05663610 1.85357959 1.20602959
C -1.60595103 0.91588190 0.38151926
C -0.20626245 0.71431304 0.06639220
N 0.78666212 1.44441517 0.55449637
N 2.01836439 1.05385304 0.10559003
C 1.99379771 0.02246287 -0.72288876
S 0.33724497 -0.56262542 -1.03667283
C -7.69023540 1.36871396 1.40898142
C -8.27271710 0.35224994 0.63057408
C -7.45994510 -0.48255298 -0.14734023
C -6.06849503 -0.31112575 -0.15489521
C -5.46503041 0.70542145 0.62138008
C -6.30453474 1.53465380 1.39753340
O -5.31465599 -1.14174199 -0.92303827
O -8.01569637 -1.48794716 -0.91947154
O -9.62979247 0.13819451 0.59917597
H -5.85121533 2.31751914 1.99653528
H -5.91122377 -1.76187265 -1.37178130
H -8.97638333 -1.45470433 -0.78881177
H -10.07871103 0.77363905 1.17303969
H 6.19433486 -2.13317840 -3.38902002
H -8.31790279 2.01734766 2.01295330
*
