# 
!wB97X-D3 def2-TZVP def2/J RIJCOSX Grid5 FinalGrid6 TightSCF
%pal 
 nprocs 24
end
%tddft
  Mode sTDDFT
  nroots 2
  Ethresh 10.0
  maxcore 5000
  triplets true
end
* xyz 0 1 
C 5.17050926 -0.23574689 -2.93406290
C 4.49862204 -0.38416117 -1.72349688
C 5.23322244 -0.71091298 -0.56767175
C 6.64318797 -0.86660988 -0.68368371
C 7.32181651 -0.72454295 -1.90374152
C 6.56290459 -0.40764551 -3.02742187
C 4.90774017 -0.91626294 0.83527731
C 6.14834478 -1.16692938 1.49379518
N 7.17087012 -1.14988896 0.56385894
C 6.25549446 -1.36858504 2.87766573
C 5.08282471 -1.30067605 3.62699191
C 3.84993292 -1.05428335 3.01043702
C 3.72163794 -0.87579331 1.61933920
H 2.95396530 -1.02418002 3.62633075
H 8.15256312 -1.28722668 0.77068638
H 5.12053976 -1.44342429 4.70308508
H 3.42159844 -0.25186798 -1.67863555
H 8.39920239 -0.85227248 -1.96606598
H 7.05336413 -0.28918211 -3.99000293
H 4.60787951 0.01535291 -3.82909686
S -2.36400096 -0.10225182 -0.89267577
C -1.36177850 0.13113167 0.54889504
N -2.02370724 0.66216325 1.56864700
N -3.33211828 0.91186528 1.28324782
C -3.70641710 0.58300901 0.04952920
C 0.03713110 -0.22705513 0.58963422
N 0.68895833 -0.76191438 -0.43478605
N 2.00511040 -1.01659109 -0.16444118
C 2.38066621 -0.67804709 1.05966525
S 1.04640504 0.00540577 2.02298088
C -5.71330478 -0.26816870 -3.91417493
S -7.35932401 0.27144131 -3.64030015
C -6.96126721 0.74410827 -1.98675561
C -5.59147648 0.48094508 -1.68567434
C -4.91449291 -0.10030652 -2.82237957
C -5.08340152 0.79795385 -0.39167839
C -5.99938861 1.36608696 0.52722166
C -7.36152345 1.62012646 0.20576546
C -7.85120476 1.30445464 -1.07170129
S -5.65616328 1.85427253 2.18472274
C -7.32100273 2.38385730 2.41661971
C -8.08924009 2.20234744 1.30831164
H -3.86938681 -0.38672264 -2.83480812
H -9.14021856 2.46523007 1.25108004
H -7.65148319 2.80299148 3.35920245
H -5.41196392 -0.68403281 -4.86750602
H 7.21689015 -1.55920636 3.34618424
H -8.88881738 1.49194526 -1.33401346
*
$new_job
# 
!wB97X-D3 def2-TZVP def2/J RIJCOSX Grid5 FinalGrid6 TightSCF
%pal 
 nprocs 24
end
%elprop
   dipole     true
   quadrupole true
end
%tddft
  Mode sTDDFT
  nroots 2
  Ethresh 10.0
  maxcore 5000
end
* xyz 0 1 
C 5.17050926 -0.23574689 -2.93406290
C 4.49862204 -0.38416117 -1.72349688
C 5.23322244 -0.71091298 -0.56767175
C 6.64318797 -0.86660988 -0.68368371
C 7.32181651 -0.72454295 -1.90374152
C 6.56290459 -0.40764551 -3.02742187
C 4.90774017 -0.91626294 0.83527731
C 6.14834478 -1.16692938 1.49379518
N 7.17087012 -1.14988896 0.56385894
C 6.25549446 -1.36858504 2.87766573
C 5.08282471 -1.30067605 3.62699191
C 3.84993292 -1.05428335 3.01043702
C 3.72163794 -0.87579331 1.61933920
H 2.95396530 -1.02418002 3.62633075
H 8.15256312 -1.28722668 0.77068638
H 5.12053976 -1.44342429 4.70308508
H 3.42159844 -0.25186798 -1.67863555
H 8.39920239 -0.85227248 -1.96606598
H 7.05336413 -0.28918211 -3.99000293
H 4.60787951 0.01535291 -3.82909686
S -2.36400096 -0.10225182 -0.89267577
C -1.36177850 0.13113167 0.54889504
N -2.02370724 0.66216325 1.56864700
N -3.33211828 0.91186528 1.28324782
C -3.70641710 0.58300901 0.04952920
C 0.03713110 -0.22705513 0.58963422
N 0.68895833 -0.76191438 -0.43478605
N 2.00511040 -1.01659109 -0.16444118
C 2.38066621 -0.67804709 1.05966525
S 1.04640504 0.00540577 2.02298088
C -5.71330478 -0.26816870 -3.91417493
S -7.35932401 0.27144131 -3.64030015
C -6.96126721 0.74410827 -1.98675561
C -5.59147648 0.48094508 -1.68567434
C -4.91449291 -0.10030652 -2.82237957
C -5.08340152 0.79795385 -0.39167839
C -5.99938861 1.36608696 0.52722166
C -7.36152345 1.62012646 0.20576546
C -7.85120476 1.30445464 -1.07170129
S -5.65616328 1.85427253 2.18472274
C -7.32100273 2.38385730 2.41661971
C -8.08924009 2.20234744 1.30831164
H -3.86938681 -0.38672264 -2.83480812
H -9.14021856 2.46523007 1.25108004
H -7.65148319 2.80299148 3.35920245
H -5.41196392 -0.68403281 -4.86750602
H 7.21689015 -1.55920636 3.34618424
H -8.88881738 1.49194526 -1.33401346
*
