# 
!wB97X-D3 def2-TZVP def2/J RIJCOSX Grid5 FinalGrid6 TightSCF
%pal 
 nprocs 24
end
%tddft
  Mode sTDDFT
  nroots 2
  Ethresh 10.0
  maxcore 5000
  triplets true
end
* xyz 0 1 
C -3.81947035 -1.53334622 2.84092583
C -3.43398966 -0.86020781 1.68372420
C -4.38274408 -0.07900545 0.99864418
C -5.71600577 -0.03694917 1.49535061
C -6.10439181 -0.70680411 2.66562111
C -5.13366654 -1.44991938 3.33368027
C -4.37116120 0.71131456 -0.22170396
C -5.70946838 1.15633674 -0.41812579
N -6.49330904 0.72057045 0.63616953
C -6.10832625 1.89277066 -1.54439934
C -5.13475908 2.16863401 -2.50314488
C -3.80703824 1.75463743 -2.32862305
C -3.38552488 1.04968593 -1.18606764
H -3.07013830 2.01236885 -3.08533756
H -7.48789712 0.88410183 0.73278610
H -5.40432870 2.72405463 -3.39734604
H -2.41723600 -0.95922381 1.31520434
H -7.12682732 -0.65593163 3.03053545
H -5.39836420 -1.98372680 4.24257734
H -3.09142819 -2.13824186 3.37445238
N 2.85769014 -0.13243052 -0.77455336
C 1.81218796 -0.10376176 -1.68949636
C 2.16462520 -0.42762385 -2.98896435
S 3.86874569 -0.78403859 -3.08693341
C 4.00492074 -0.46710101 -1.32880394
C 0.47034221 0.24746052 -1.24528312
S -0.91730643 0.29457178 -2.36325430
C -1.96131687 0.74040976 -1.01244905
C -1.19401911 0.83814612 0.13383373
N 0.14651911 0.56141569 -0.00105660
H 1.51099679 -0.46727544 -3.85129771
H -1.58159677 1.15082291 1.10114471
C 5.28227725 -0.58178801 -0.62472396
C 5.38814232 -0.27853014 0.75921463
C 6.62280420 -0.42750649 1.41184116
C 7.77873537 -0.80483709 0.70794754
C 7.69019822 -1.08559708 -0.66540313
C 6.45427688 -0.98294846 -1.30135582
O 8.95027554 -0.89755557 1.38109272
O 6.75354362 -0.16979311 2.78890426
O 4.30776668 0.14456604 1.46461759
H 6.38949002 -1.21202585 -2.36208712
H 8.77738772 -0.65193874 2.30425281
H 5.99585508 -0.52837622 3.27246398
H 4.58689824 0.52305962 2.30880952
H -7.13663358 2.21929581 -1.67062030
H 8.57366888 -1.38793915 -1.21576320
*
$new_job
# 
!wB97X-D3 def2-TZVP def2/J RIJCOSX Grid5 FinalGrid6 TightSCF
%pal 
 nprocs 24
end
%elprop
   dipole     true
   quadrupole true
end
%tddft
  Mode sTDDFT
  nroots 2
  Ethresh 10.0
  maxcore 5000
end
* xyz 0 1 
C -3.81947035 -1.53334622 2.84092583
C -3.43398966 -0.86020781 1.68372420
C -4.38274408 -0.07900545 0.99864418
C -5.71600577 -0.03694917 1.49535061
C -6.10439181 -0.70680411 2.66562111
C -5.13366654 -1.44991938 3.33368027
C -4.37116120 0.71131456 -0.22170396
C -5.70946838 1.15633674 -0.41812579
N -6.49330904 0.72057045 0.63616953
C -6.10832625 1.89277066 -1.54439934
C -5.13475908 2.16863401 -2.50314488
C -3.80703824 1.75463743 -2.32862305
C -3.38552488 1.04968593 -1.18606764
H -3.07013830 2.01236885 -3.08533756
H -7.48789712 0.88410183 0.73278610
H -5.40432870 2.72405463 -3.39734604
H -2.41723600 -0.95922381 1.31520434
H -7.12682732 -0.65593163 3.03053545
H -5.39836420 -1.98372680 4.24257734
H -3.09142819 -2.13824186 3.37445238
N 2.85769014 -0.13243052 -0.77455336
C 1.81218796 -0.10376176 -1.68949636
C 2.16462520 -0.42762385 -2.98896435
S 3.86874569 -0.78403859 -3.08693341
C 4.00492074 -0.46710101 -1.32880394
C 0.47034221 0.24746052 -1.24528312
S -0.91730643 0.29457178 -2.36325430
C -1.96131687 0.74040976 -1.01244905
C -1.19401911 0.83814612 0.13383373
N 0.14651911 0.56141569 -0.00105660
H 1.51099679 -0.46727544 -3.85129771
H -1.58159677 1.15082291 1.10114471
C 5.28227725 -0.58178801 -0.62472396
C 5.38814232 -0.27853014 0.75921463
C 6.62280420 -0.42750649 1.41184116
C 7.77873537 -0.80483709 0.70794754
C 7.69019822 -1.08559708 -0.66540313
C 6.45427688 -0.98294846 -1.30135582
O 8.95027554 -0.89755557 1.38109272
O 6.75354362 -0.16979311 2.78890426
O 4.30776668 0.14456604 1.46461759
H 6.38949002 -1.21202585 -2.36208712
H 8.77738772 -0.65193874 2.30425281
H 5.99585508 -0.52837622 3.27246398
H 4.58689824 0.52305962 2.30880952
H -7.13663358 2.21929581 -1.67062030
H 8.57366888 -1.38793915 -1.21576320
*
