# 
!wB97X-D3 def2-TZVP def2/J RIJCOSX Grid5 FinalGrid6 TightSCF
%pal 
 nprocs 24
end
%tddft
  Mode sTDDFT
  nroots 2
  Ethresh 10.0
  maxcore 5000
  triplets true
end
* xyz 0 1 
C 5.13153554 -0.14682593 -3.00853551
C 4.47524350 -0.33644034 -1.79517071
C 5.22414282 -0.70527686 -0.66139678
C 6.63205855 -0.85973718 -0.80145725
C 7.29494948 -0.67614319 -2.02462130
C 6.52214179 -0.31822533 -3.12629860
C 4.91660681 -0.95928439 0.73762606
C 6.16510479 -1.23562455 1.37044254
N 7.17536203 -1.18794844 0.42824314
C 6.28989517 -1.48616833 2.74481531
C 5.12734866 -1.44222770 3.51150519
C 3.88710508 -1.17161290 2.92037020
C 3.74102291 -0.94393519 1.53823911
H 2.99938673 -1.16130951 3.54873249
H 8.15933542 -1.33453093 0.61710701
H 5.17883187 -1.62290202 4.58130973
H 3.39924273 -0.20357057 -1.73143599
H 8.37109312 -0.80384102 -2.10566021
H 7.00020578 -0.16690956 -4.09051066
H 4.55783126 0.13685554 -3.88664514
S -2.37489211 -0.06835524 -0.86449398
C -3.70276878 0.58683136 0.11881043
N -3.31132994 0.87125367 1.35824018
N -2.00003549 0.60841692 1.61738229
C -1.35313483 0.11181743 0.57098389
C 0.04514624 -0.25097112 0.58066115
N 0.68196046 -0.75116632 -0.47036429
N 2.00082703 -1.01824619 -0.22650737
C 2.39335792 -0.72364925 1.00362288
S 1.07378781 -0.07122858 2.00781039
C -5.76386528 -0.11870888 -3.84569079
S -7.40463795 0.41467259 -3.53115280
C -6.98358056 0.82757374 -1.86733587
C -5.61069806 0.55071438 -1.59388193
C -4.95031969 0.00852010 -2.75929539
C -5.08479587 0.82054796 -0.29631598
C -5.98702119 1.35803237 0.65409843
C -7.35254275 1.62646304 0.35986051
C -7.85985004 1.35727984 -0.92136452
S -5.62066788 1.78658687 2.32310066
C -7.28082377 2.31154491 2.59555295
C -8.06407020 2.17108003 1.49179741
H -3.90625589 -0.27965791 -2.79568568
H -9.11497004 2.43827399 1.45779178
H -7.59770565 2.69792253 3.55662133
H -5.47623152 -0.50122613 -4.81705063
H 7.25686285 -1.69521455 3.19358895
H -8.90028888 1.55635083 -1.16314263
*
$new_job
# 
!wB97X-D3 def2-TZVP def2/J RIJCOSX Grid5 FinalGrid6 TightSCF
%pal 
 nprocs 24
end
%elprop
   dipole     true
   quadrupole true
end
%tddft
  Mode sTDDFT
  nroots 2
  Ethresh 10.0
  maxcore 5000
end
* xyz 0 1 
C 5.13153554 -0.14682593 -3.00853551
C 4.47524350 -0.33644034 -1.79517071
C 5.22414282 -0.70527686 -0.66139678
C 6.63205855 -0.85973718 -0.80145725
C 7.29494948 -0.67614319 -2.02462130
C 6.52214179 -0.31822533 -3.12629860
C 4.91660681 -0.95928439 0.73762606
C 6.16510479 -1.23562455 1.37044254
N 7.17536203 -1.18794844 0.42824314
C 6.28989517 -1.48616833 2.74481531
C 5.12734866 -1.44222770 3.51150519
C 3.88710508 -1.17161290 2.92037020
C 3.74102291 -0.94393519 1.53823911
H 2.99938673 -1.16130951 3.54873249
H 8.15933542 -1.33453093 0.61710701
H 5.17883187 -1.62290202 4.58130973
H 3.39924273 -0.20357057 -1.73143599
H 8.37109312 -0.80384102 -2.10566021
H 7.00020578 -0.16690956 -4.09051066
H 4.55783126 0.13685554 -3.88664514
S -2.37489211 -0.06835524 -0.86449398
C -3.70276878 0.58683136 0.11881043
N -3.31132994 0.87125367 1.35824018
N -2.00003549 0.60841692 1.61738229
C -1.35313483 0.11181743 0.57098389
C 0.04514624 -0.25097112 0.58066115
N 0.68196046 -0.75116632 -0.47036429
N 2.00082703 -1.01824619 -0.22650737
C 2.39335792 -0.72364925 1.00362288
S 1.07378781 -0.07122858 2.00781039
C -5.76386528 -0.11870888 -3.84569079
S -7.40463795 0.41467259 -3.53115280
C -6.98358056 0.82757374 -1.86733587
C -5.61069806 0.55071438 -1.59388193
C -4.95031969 0.00852010 -2.75929539
C -5.08479587 0.82054796 -0.29631598
C -5.98702119 1.35803237 0.65409843
C -7.35254275 1.62646304 0.35986051
C -7.85985004 1.35727984 -0.92136452
S -5.62066788 1.78658687 2.32310066
C -7.28082377 2.31154491 2.59555295
C -8.06407020 2.17108003 1.49179741
H -3.90625589 -0.27965791 -2.79568568
H -9.11497004 2.43827399 1.45779178
H -7.59770565 2.69792253 3.55662133
H -5.47623152 -0.50122613 -4.81705063
H 7.25686285 -1.69521455 3.19358895
H -8.90028888 1.55635083 -1.16314263
*
