# 
!wB97X-D3 def2-TZVP def2/J RIJCOSX Grid5 FinalGrid6 TightSCF
%pal 
 nprocs 24
end
%tddft
  Mode sTDDFT
  nroots 2
  Ethresh 10.0
  maxcore 5000
  triplets true
end
* xyz 0 1 
C -4.84358036 2.73949080 1.20432607
C -4.03952377 1.66098924 0.84558457
C -4.64535475 0.48623005 0.35981078
C -6.06360134 0.45435333 0.24508812
C -6.87669006 1.53746972 0.61252559
C -6.24419945 2.68019527 1.09507120
C -4.16168057 -0.79679587 -0.12586372
C -5.32014625 -1.52747794 -0.52650099
N -6.44753108 -0.76732208 -0.27973540
C -5.26079521 -2.80657209 -1.09871548
C -3.99852357 -3.36465361 -1.29024440
C -2.84248316 -2.67242883 -0.90971548
C -2.88593038 -1.39877166 -0.30961696
H -1.87531511 -3.14694057 -1.05973322
H -7.39891067 -1.04778910 -0.48373222
H -3.90587339 -4.35042245 -1.73680697
H -2.96032407 1.73015247 0.94503388
H -7.95808309 1.48588621 0.51850870
H -6.84073577 3.53954169 1.38957051
H -4.38081997 3.64750223 1.58090218
S 3.21765689 -0.58916412 -0.61511058
C 4.50478220 0.34449260 0.19539438
N 4.03917123 1.11616993 1.16895546
N 2.69239546 1.03782399 1.34670391
C 2.09582753 0.19891241 0.50785142
C 0.67238393 -0.06357013 0.48840647
N -0.20204496 0.49629592 1.31376147
N -1.48728573 0.08977985 1.09742205
C -1.62505533 -0.77832045 0.10660589
S -0.06872885 -1.18762120 -0.66295582
C 5.90821469 0.25495440 -0.18557145
C 6.32823451 -0.57154095 -1.21197952
C 7.69633469 -0.67716391 -1.60431096
C 8.68229195 0.04061918 -0.98131361
C 8.33182236 0.92599096 0.09836791
C 6.92027034 1.04288438 0.51217554
N 9.22736154 1.65262036 0.74930913
S 8.27876201 2.61918001 2.04037505
N 6.64203444 1.86552936 1.50580223
H 5.59173464 -1.16843733 -1.74662180
H 7.94743798 -1.34909060 -2.42079474
H -6.16382484 -3.33541267 -1.39021139
H 9.72052532 -0.04766882 -1.28831779
*
$new_job
# 
!wB97X-D3 def2-TZVP def2/J RIJCOSX Grid5 FinalGrid6 TightSCF
%pal 
 nprocs 24
end
%elprop
   dipole     true
   quadrupole true
end
%tddft
  Mode sTDDFT
  nroots 2
  Ethresh 10.0
  maxcore 5000
end
* xyz 0 1 
C -4.84358036 2.73949080 1.20432607
C -4.03952377 1.66098924 0.84558457
C -4.64535475 0.48623005 0.35981078
C -6.06360134 0.45435333 0.24508812
C -6.87669006 1.53746972 0.61252559
C -6.24419945 2.68019527 1.09507120
C -4.16168057 -0.79679587 -0.12586372
C -5.32014625 -1.52747794 -0.52650099
N -6.44753108 -0.76732208 -0.27973540
C -5.26079521 -2.80657209 -1.09871548
C -3.99852357 -3.36465361 -1.29024440
C -2.84248316 -2.67242883 -0.90971548
C -2.88593038 -1.39877166 -0.30961696
H -1.87531511 -3.14694057 -1.05973322
H -7.39891067 -1.04778910 -0.48373222
H -3.90587339 -4.35042245 -1.73680697
H -2.96032407 1.73015247 0.94503388
H -7.95808309 1.48588621 0.51850870
H -6.84073577 3.53954169 1.38957051
H -4.38081997 3.64750223 1.58090218
S 3.21765689 -0.58916412 -0.61511058
C 4.50478220 0.34449260 0.19539438
N 4.03917123 1.11616993 1.16895546
N 2.69239546 1.03782399 1.34670391
C 2.09582753 0.19891241 0.50785142
C 0.67238393 -0.06357013 0.48840647
N -0.20204496 0.49629592 1.31376147
N -1.48728573 0.08977985 1.09742205
C -1.62505533 -0.77832045 0.10660589
S -0.06872885 -1.18762120 -0.66295582
C 5.90821469 0.25495440 -0.18557145
C 6.32823451 -0.57154095 -1.21197952
C 7.69633469 -0.67716391 -1.60431096
C 8.68229195 0.04061918 -0.98131361
C 8.33182236 0.92599096 0.09836791
C 6.92027034 1.04288438 0.51217554
N 9.22736154 1.65262036 0.74930913
S 8.27876201 2.61918001 2.04037505
N 6.64203444 1.86552936 1.50580223
H 5.59173464 -1.16843733 -1.74662180
H 7.94743798 -1.34909060 -2.42079474
H -6.16382484 -3.33541267 -1.39021139
H 9.72052532 -0.04766882 -1.28831779
*
