# 
!wB97X-D3 def2-TZVP def2/J RIJCOSX Grid5 FinalGrid6 OPT
%pal 
 nprocs #TO_BE_DECLARED_BY_THE_USER
end
* xyzfile 0 1 geo_end.xyz
