# 
!wB97X-D3 def2-TZVP def2/J RIJCOSX Grid5 FinalGrid6 TightSCF
%pal 
 nprocs 24
end
%tddft
  Mode sTDDFT
  nroots 2
  Ethresh 10.0
  maxcore 5000
  triplets true
end
* xyz 0 1 
C 8.44957584 0.18071500 -2.65641484
C 7.53576646 -0.02842623 -1.62655392
C 7.97576043 -0.62708652 -0.43056637
C 9.34120634 -1.01678313 -0.33234426
C 10.26522621 -0.80194138 -1.36629423
C 9.79859794 -0.19376312 -2.52879357
C 7.34214758 -1.02320845 0.81824409
C 8.35932365 -1.65580631 1.59249097
N 9.55138614 -1.62363314 0.89357878
C 8.12084180 -2.22450165 2.85259359
C 6.81868621 -2.16802859 3.34433945
C 5.79927864 -1.54683967 2.61110180
C 6.02973478 -0.94922930 1.35761012
H 4.79952320 -1.50047830 3.03450983
H 10.42858609 -2.01535886 1.21361522
H 6.58832644 -2.60303121 4.31270165
H 6.50008449 0.26651336 -1.75915145
H 11.30367696 -1.10548406 -1.26413930
H 10.48459419 -0.01184842 -3.35178046
H 8.11425232 0.64349799 -3.58039702
C -0.64840385 0.85055266 -0.45056492
N -0.14138104 1.81028304 -1.23861759
O 1.21277886 1.74573478 -1.13024218
C 1.55734867 0.76118177 -0.28470333
C 0.41662242 0.14438256 0.18745986
C 2.96905601 0.51944396 -0.02308504
N 3.94148862 1.25258241 -0.58491942
O 5.11929895 0.75164738 -0.12554420
C 4.90009139 -0.27824058 0.70575323
C 3.53630484 -0.47494920 0.82564660
H 3.02133054 -1.22661140 1.40612756
H 0.36266971 -0.67157385 0.89174266
C -4.90024724 0.29419144 -0.07336774
C -4.03443772 -0.75756568 0.27388274
C -2.63142936 -0.58735342 0.13482813
C -2.10297974 0.64792841 -0.31788837
C -2.99036950 1.70480896 -0.64542446
C -4.39467854 1.51887473 -0.53858764
N -2.48335684 2.98072782 -0.96963374
C -2.75306477 3.60657351 -2.06653391
C -2.24265755 5.01333217 -2.25507397
N -5.25437162 2.62549389 -0.76653909
C -6.29856045 2.56248918 -1.52666710
C -7.18863599 3.77553160 -1.64755894
N -4.54267225 -2.03924280 0.61154555
C -5.44650059 -2.22509672 1.51778959
C -6.00675243 -1.14819352 2.42964252
N -1.77826746 -1.69803423 0.33889994
C -1.72263867 -2.36102598 1.44666962
C -2.40135644 -1.95478228 2.74049233
C -3.50391287 3.01002817 -3.24163634
C -6.69694048 1.36237457 -2.36671061
C -5.97399503 -3.62087426 1.74716773
C -0.86105545 -3.59847397 1.51625394
H -3.66336732 1.94325282 -3.10864681
H -2.94739725 3.17012627 -4.16448091
H -4.47609642 3.48907147 -3.36192116
H -3.06472870 5.69392466 -2.47841515
H -1.72990223 5.36720930 -1.36571660
H -1.55098033 5.06183367 -3.09653922
H -0.06819943 -3.47664159 2.25525649
H -1.45265242 -4.46059554 1.82426755
H -0.40743782 -3.81591231 0.55387690
H -3.19838720 -2.65345022 2.99534580
H -2.83114667 -0.95951029 2.66595500
H -1.68421823 -1.96869354 3.56093601
H -6.13178141 -1.53567845 3.43950529
H -6.98846069 -0.82167552 2.08572102
H -5.35522667 -0.27882733 2.46256360
H -5.75092038 -3.95547090 2.76107273
H -7.05823407 -3.64656179 1.63667081
H -5.53696830 -4.32570892 1.04616395
H -7.50499230 0.80750766 -1.88931753
H -5.86021144 0.68345320 -2.50897817
H -7.06002167 1.68628090 -3.34072533
H -6.84717876 4.57887904 -1.00164717
H -7.20534165 4.13960440 -2.67553294
H -8.21666184 3.52787230 -1.38244143
H 8.91924292 -2.69843831 3.41653883
H -5.97372958 0.15652589 0.01563496
*
$new_job
# 
!wB97X-D3 def2-TZVP def2/J RIJCOSX Grid5 FinalGrid6 TightSCF
%pal 
 nprocs 24
end
%elprop
   dipole     true
   quadrupole true
end
%tddft
  Mode sTDDFT
  nroots 2
  Ethresh 10.0
  maxcore 5000
end
* xyz 0 1 
C 8.44957584 0.18071500 -2.65641484
C 7.53576646 -0.02842623 -1.62655392
C 7.97576043 -0.62708652 -0.43056637
C 9.34120634 -1.01678313 -0.33234426
C 10.26522621 -0.80194138 -1.36629423
C 9.79859794 -0.19376312 -2.52879357
C 7.34214758 -1.02320845 0.81824409
C 8.35932365 -1.65580631 1.59249097
N 9.55138614 -1.62363314 0.89357878
C 8.12084180 -2.22450165 2.85259359
C 6.81868621 -2.16802859 3.34433945
C 5.79927864 -1.54683967 2.61110180
C 6.02973478 -0.94922930 1.35761012
H 4.79952320 -1.50047830 3.03450983
H 10.42858609 -2.01535886 1.21361522
H 6.58832644 -2.60303121 4.31270165
H 6.50008449 0.26651336 -1.75915145
H 11.30367696 -1.10548406 -1.26413930
H 10.48459419 -0.01184842 -3.35178046
H 8.11425232 0.64349799 -3.58039702
C -0.64840385 0.85055266 -0.45056492
N -0.14138104 1.81028304 -1.23861759
O 1.21277886 1.74573478 -1.13024218
C 1.55734867 0.76118177 -0.28470333
C 0.41662242 0.14438256 0.18745986
C 2.96905601 0.51944396 -0.02308504
N 3.94148862 1.25258241 -0.58491942
O 5.11929895 0.75164738 -0.12554420
C 4.90009139 -0.27824058 0.70575323
C 3.53630484 -0.47494920 0.82564660
H 3.02133054 -1.22661140 1.40612756
H 0.36266971 -0.67157385 0.89174266
C -4.90024724 0.29419144 -0.07336774
C -4.03443772 -0.75756568 0.27388274
C -2.63142936 -0.58735342 0.13482813
C -2.10297974 0.64792841 -0.31788837
C -2.99036950 1.70480896 -0.64542446
C -4.39467854 1.51887473 -0.53858764
N -2.48335684 2.98072782 -0.96963374
C -2.75306477 3.60657351 -2.06653391
C -2.24265755 5.01333217 -2.25507397
N -5.25437162 2.62549389 -0.76653909
C -6.29856045 2.56248918 -1.52666710
C -7.18863599 3.77553160 -1.64755894
N -4.54267225 -2.03924280 0.61154555
C -5.44650059 -2.22509672 1.51778959
C -6.00675243 -1.14819352 2.42964252
N -1.77826746 -1.69803423 0.33889994
C -1.72263867 -2.36102598 1.44666962
C -2.40135644 -1.95478228 2.74049233
C -3.50391287 3.01002817 -3.24163634
C -6.69694048 1.36237457 -2.36671061
C -5.97399503 -3.62087426 1.74716773
C -0.86105545 -3.59847397 1.51625394
H -3.66336732 1.94325282 -3.10864681
H -2.94739725 3.17012627 -4.16448091
H -4.47609642 3.48907147 -3.36192116
H -3.06472870 5.69392466 -2.47841515
H -1.72990223 5.36720930 -1.36571660
H -1.55098033 5.06183367 -3.09653922
H -0.06819943 -3.47664159 2.25525649
H -1.45265242 -4.46059554 1.82426755
H -0.40743782 -3.81591231 0.55387690
H -3.19838720 -2.65345022 2.99534580
H -2.83114667 -0.95951029 2.66595500
H -1.68421823 -1.96869354 3.56093601
H -6.13178141 -1.53567845 3.43950529
H -6.98846069 -0.82167552 2.08572102
H -5.35522667 -0.27882733 2.46256360
H -5.75092038 -3.95547090 2.76107273
H -7.05823407 -3.64656179 1.63667081
H -5.53696830 -4.32570892 1.04616395
H -7.50499230 0.80750766 -1.88931753
H -5.86021144 0.68345320 -2.50897817
H -7.06002167 1.68628090 -3.34072533
H -6.84717876 4.57887904 -1.00164717
H -7.20534165 4.13960440 -2.67553294
H -8.21666184 3.52787230 -1.38244143
H 8.91924292 -2.69843831 3.41653883
H -5.97372958 0.15652589 0.01563496
*
