# 
!wB97X-D3 def2-TZVP def2/J RIJCOSX Grid5 FinalGrid6 TightSCF
%pal 
 nprocs 24
end
%tddft
  Mode sTDDFT
  nroots 2
  Ethresh 10.0
  maxcore 5000
  triplets true
end
* xyz 0 1 
C 8.35884587 1.89622727 2.14166813
C 7.41957674 1.28063854 1.31724991
C 7.76098000 0.07921095 0.66944408
C 9.04549758 -0.48378756 0.91242985
C 9.99639730 0.13890890 1.73529544
C 9.63503362 1.34061272 2.34041876
C 7.06260610 -0.84721986 -0.20689333
C 7.95003357 -1.94129196 -0.41466246
N 9.14255846 -1.69096980 0.24190989
C 7.59414192 -3.07874475 -1.15592502
C 6.30423423 -3.11825011 -1.68285866
C 5.41510514 -2.04924918 -1.50531324
C 5.77214703 -0.88676677 -0.79746915
H 4.42658026 -2.10493751 -1.95459322
H 9.93750582 -2.31746144 0.27094692
H 5.98312474 -3.98681107 -2.25141361
H 6.43441865 1.72192485 1.19802446
H 10.97402127 -0.30558300 1.90206197
H 10.34514610 1.85068057 2.98590472
H 8.10131173 2.82428476 2.64461512
N 0.45203285 1.53869613 -0.49405786
C 1.55665515 2.36747338 -0.64828305
C 1.27076619 3.71969638 -0.72307246
S -0.44918075 3.97933233 -0.59675761
C -0.68171415 2.21621405 -0.44737887
C 2.88034150 1.77297671 -0.71587344
S 3.09093361 0.01729135 -0.59870665
C 4.83280504 0.24016021 -0.73902433
C 5.10364980 1.58959850 -0.88323371
N 4.01858060 2.43611790 -0.86651471
H 1.98173473 4.52629733 -0.84218601
H 6.09884492 1.99900289 -1.04239807
C -3.34705016 -0.41079763 -0.04806362
C -4.52632050 0.36468657 0.01425847
C -4.41860979 1.76989160 -0.07850767
C -3.17603123 2.37115581 -0.23040674
C -1.99688809 1.60272707 -0.29078547
C -2.10952989 0.19976702 -0.19527347
N -5.78841718 -0.25273135 0.16685665
C -5.90794977 -1.46760391 0.89717064
C -6.84133221 -2.44629605 0.50255849
C -6.96005866 -3.63093430 1.22590003
C -6.15282723 -3.86517942 2.34171185
C -5.22443339 -2.89851636 2.73569840
C -5.10103382 -1.70530371 2.02738242
C -6.94833689 0.33604113 -0.40823221
C -8.19125232 0.24957554 0.24953148
C -9.32589549 0.82108772 -0.32192009
C -9.24395564 1.49100535 -1.54507387
C -8.01340274 1.58096903 -2.20024725
C -6.87212019 1.00653337 -1.64509859
H -8.26017739 -0.26037605 1.20625218
H -10.27874072 0.75115983 0.19622913
H -7.94322860 2.09305025 -3.15632825
H -5.92177981 1.06773718 -2.16789273
H -7.46442181 -2.27553751 -0.37078869
H -7.68105975 -4.38043181 0.91014859
H -6.24697916 -4.79215603 2.89967702
H -4.59850521 -3.06994536 3.60747876
H -4.38690694 -0.95226450 2.34851991
H -5.31228471 2.38419967 -0.01910110
H -3.11296876 3.45589000 -0.29191516
H -1.20888642 -0.40522264 -0.24984939
H -3.41230970 -1.49366069 0.00846343
H 8.29004561 -3.90055136 -1.29851834
H -10.13106706 1.93775884 -1.98428862
*
$new_job
# 
!wB97X-D3 def2-TZVP def2/J RIJCOSX Grid5 FinalGrid6 TightSCF
%pal 
 nprocs 24
end
%elprop
   dipole     true
   quadrupole true
end
%tddft
  Mode sTDDFT
  nroots 2
  Ethresh 10.0
  maxcore 5000
end
* xyz 0 1 
C 8.35884587 1.89622727 2.14166813
C 7.41957674 1.28063854 1.31724991
C 7.76098000 0.07921095 0.66944408
C 9.04549758 -0.48378756 0.91242985
C 9.99639730 0.13890890 1.73529544
C 9.63503362 1.34061272 2.34041876
C 7.06260610 -0.84721986 -0.20689333
C 7.95003357 -1.94129196 -0.41466246
N 9.14255846 -1.69096980 0.24190989
C 7.59414192 -3.07874475 -1.15592502
C 6.30423423 -3.11825011 -1.68285866
C 5.41510514 -2.04924918 -1.50531324
C 5.77214703 -0.88676677 -0.79746915
H 4.42658026 -2.10493751 -1.95459322
H 9.93750582 -2.31746144 0.27094692
H 5.98312474 -3.98681107 -2.25141361
H 6.43441865 1.72192485 1.19802446
H 10.97402127 -0.30558300 1.90206197
H 10.34514610 1.85068057 2.98590472
H 8.10131173 2.82428476 2.64461512
N 0.45203285 1.53869613 -0.49405786
C 1.55665515 2.36747338 -0.64828305
C 1.27076619 3.71969638 -0.72307246
S -0.44918075 3.97933233 -0.59675761
C -0.68171415 2.21621405 -0.44737887
C 2.88034150 1.77297671 -0.71587344
S 3.09093361 0.01729135 -0.59870665
C 4.83280504 0.24016021 -0.73902433
C 5.10364980 1.58959850 -0.88323371
N 4.01858060 2.43611790 -0.86651471
H 1.98173473 4.52629733 -0.84218601
H 6.09884492 1.99900289 -1.04239807
C -3.34705016 -0.41079763 -0.04806362
C -4.52632050 0.36468657 0.01425847
C -4.41860979 1.76989160 -0.07850767
C -3.17603123 2.37115581 -0.23040674
C -1.99688809 1.60272707 -0.29078547
C -2.10952989 0.19976702 -0.19527347
N -5.78841718 -0.25273135 0.16685665
C -5.90794977 -1.46760391 0.89717064
C -6.84133221 -2.44629605 0.50255849
C -6.96005866 -3.63093430 1.22590003
C -6.15282723 -3.86517942 2.34171185
C -5.22443339 -2.89851636 2.73569840
C -5.10103382 -1.70530371 2.02738242
C -6.94833689 0.33604113 -0.40823221
C -8.19125232 0.24957554 0.24953148
C -9.32589549 0.82108772 -0.32192009
C -9.24395564 1.49100535 -1.54507387
C -8.01340274 1.58096903 -2.20024725
C -6.87212019 1.00653337 -1.64509859
H -8.26017739 -0.26037605 1.20625218
H -10.27874072 0.75115983 0.19622913
H -7.94322860 2.09305025 -3.15632825
H -5.92177981 1.06773718 -2.16789273
H -7.46442181 -2.27553751 -0.37078869
H -7.68105975 -4.38043181 0.91014859
H -6.24697916 -4.79215603 2.89967702
H -4.59850521 -3.06994536 3.60747876
H -4.38690694 -0.95226450 2.34851991
H -5.31228471 2.38419967 -0.01910110
H -3.11296876 3.45589000 -0.29191516
H -1.20888642 -0.40522264 -0.24984939
H -3.41230970 -1.49366069 0.00846343
H 8.29004561 -3.90055136 -1.29851834
H -10.13106706 1.93775884 -1.98428862
*
