# 
!wB97X-D3 def2-TZVP def2/J RIJCOSX Grid5 FinalGrid6 TightSCF
%pal 
 nprocs 24
end
%tddft
  Mode sTDDFT
  nroots 2
  Ethresh 10.0
  maxcore 5000
  triplets true
end
* xyz 0 1 
C 6.06838965 1.46370459 -0.93528551
C 5.00559240 0.69153291 -0.47416644
C 5.25890030 -0.34207632 0.44807352
C 6.59879806 -0.54833962 0.88145188
C 7.67272061 0.22396570 0.41294556
C 7.38639452 1.23258954 -0.50328174
C 4.44006865 -1.31288111 1.15737701
C 5.33393268 -2.04145023 1.99793087
N 6.62198389 -1.57967960 1.80397714
C 4.91038485 -3.04437861 2.88210200
C 3.54449247 -3.31456339 2.93705919
C 2.64149365 -2.61593945 2.12670361
C 3.05312490 -1.62466312 1.21424571
H 1.58454866 -2.86593747 2.18519265
H 7.44463389 -1.91943156 2.28688065
H 3.17188087 -4.07866303 3.61316952
H 3.99752858 0.88659565 -0.82790665
H 8.68747378 0.04323408 0.75725466
H 8.19216910 1.85172850 -0.88862402
H 5.87805192 2.26143476 -1.64792656
S -2.70868265 0.14514917 -0.11255730
C -3.60595224 0.94955090 -1.42045622
N -2.81948313 1.29020123 -2.44378761
N -1.51607579 0.95836394 -2.27931279
C -1.26892852 0.35060271 -1.11868632
C 0.04246992 -0.09962481 -0.70891162
N 1.14335646 0.02909387 -1.43942135
N 2.25755298 -0.47339746 -0.83329509
C 2.03980325 -0.98938176 0.36758521
S 0.32574579 -0.89433377 0.85014546
C -5.99064578 -0.14515288 1.80981447
N -5.23649376 0.20238968 0.78567470
C -5.83559844 0.83533604 -0.28649443
C -7.26632456 1.09844916 -0.25693788
N -8.02649044 0.71582216 0.84222746
C -7.40348361 0.11638897 1.83509894
C -5.03183365 1.21104881 -1.38910912
C -5.68240511 1.87437777 -2.50284896
C -7.13735911 2.13490571 -2.45824505
C -7.89951302 1.73545686 -1.32358805
N -7.68028270 2.74783980 -3.51090687
S -6.30347880 3.05626103 -4.70374983
N -5.03519047 2.27326189 -3.58989220
H -7.99940595 -0.18748816 2.70494043
H -5.50474408 -0.64683262 2.65543357
H 5.61933428 -3.58089722 3.50633164
H -8.96835429 1.92602672 -1.28932426
*
$new_job
# 
!wB97X-D3 def2-TZVP def2/J RIJCOSX Grid5 FinalGrid6 TightSCF
%pal 
 nprocs 24
end
%elprop
   dipole     true
   quadrupole true
end
%tddft
  Mode sTDDFT
  nroots 2
  Ethresh 10.0
  maxcore 5000
end
* xyz 0 1 
C 6.06838965 1.46370459 -0.93528551
C 5.00559240 0.69153291 -0.47416644
C 5.25890030 -0.34207632 0.44807352
C 6.59879806 -0.54833962 0.88145188
C 7.67272061 0.22396570 0.41294556
C 7.38639452 1.23258954 -0.50328174
C 4.44006865 -1.31288111 1.15737701
C 5.33393268 -2.04145023 1.99793087
N 6.62198389 -1.57967960 1.80397714
C 4.91038485 -3.04437861 2.88210200
C 3.54449247 -3.31456339 2.93705919
C 2.64149365 -2.61593945 2.12670361
C 3.05312490 -1.62466312 1.21424571
H 1.58454866 -2.86593747 2.18519265
H 7.44463389 -1.91943156 2.28688065
H 3.17188087 -4.07866303 3.61316952
H 3.99752858 0.88659565 -0.82790665
H 8.68747378 0.04323408 0.75725466
H 8.19216910 1.85172850 -0.88862402
H 5.87805192 2.26143476 -1.64792656
S -2.70868265 0.14514917 -0.11255730
C -3.60595224 0.94955090 -1.42045622
N -2.81948313 1.29020123 -2.44378761
N -1.51607579 0.95836394 -2.27931279
C -1.26892852 0.35060271 -1.11868632
C 0.04246992 -0.09962481 -0.70891162
N 1.14335646 0.02909387 -1.43942135
N 2.25755298 -0.47339746 -0.83329509
C 2.03980325 -0.98938176 0.36758521
S 0.32574579 -0.89433377 0.85014546
C -5.99064578 -0.14515288 1.80981447
N -5.23649376 0.20238968 0.78567470
C -5.83559844 0.83533604 -0.28649443
C -7.26632456 1.09844916 -0.25693788
N -8.02649044 0.71582216 0.84222746
C -7.40348361 0.11638897 1.83509894
C -5.03183365 1.21104881 -1.38910912
C -5.68240511 1.87437777 -2.50284896
C -7.13735911 2.13490571 -2.45824505
C -7.89951302 1.73545686 -1.32358805
N -7.68028270 2.74783980 -3.51090687
S -6.30347880 3.05626103 -4.70374983
N -5.03519047 2.27326189 -3.58989220
H -7.99940595 -0.18748816 2.70494043
H -5.50474408 -0.64683262 2.65543357
H 5.61933428 -3.58089722 3.50633164
H -8.96835429 1.92602672 -1.28932426
*
