# 
!wB97X-D3 def2-TZVP def2/J RIJCOSX Grid5 FinalGrid6 TightSCF
%pal 
 nprocs 24
end
%tddft
  Mode sTDDFT
  nroots 2
  Ethresh 10.0
  maxcore 5000
  triplets true
end
* xyz 0 1 
C -8.78368008 3.23570696 -1.39424295
C -7.58000059 2.57913016 -1.31836482
C -7.41906804 1.46451287 -0.43355374
C -8.53619729 1.05187089 0.38087415
C -9.77413003 1.76466562 0.26946533
C -9.88848060 2.82431865 -0.59605641
N -6.22711609 0.81997058 -0.37453147
C -6.12074390 -0.23136565 0.47094129
C -7.23400334 -0.62186834 1.31050859
N -8.42722298 0.01974668 1.25231172
C -7.07106781 -1.70704266 2.22994338
C -5.86658617 -2.36177884 2.31393138
C -4.77498628 -1.99010439 1.48837044
C -4.87090643 -0.95940722 0.56630940
H -3.84720622 -2.55045738 1.57068025
H -5.73975094 -3.18505448 3.01240697
H -7.91020989 -1.99971502 2.85520388
H -10.82902664 3.36316821 -0.67888096
H -6.73731229 2.89286767 -1.92961068
H -8.90435297 4.07974017 -2.06862066
S 1.04222879 -0.08009432 -2.09650909
C 0.01886955 -0.59084898 -0.76085283
C 0.78747739 -1.04573598 0.29121703
C 2.20294792 -0.98516418 0.04952676
C 2.49172664 -0.48455511 -1.21019908
C -1.42313695 -0.50498492 -0.84315853
C -2.35484050 -0.86189194 0.11081703
C -3.71447431 -0.62999224 -0.29071851
C -3.79651191 -0.10312717 -1.56789734
S -2.22163049 0.11439426 -2.28324456
H -2.07623892 -1.25289671 1.08367764
H 0.35948048 -1.40336954 1.22254144
H -4.70016877 0.13343947 -2.11370362
H 3.46550055 -0.37735271 -1.66735338
C 5.14326762 -1.73854054 2.29820022
C 4.29630811 -2.54968776 3.00544392
S 2.69446040 -2.53917981 2.31797204
C 3.18675846 -1.42456827 1.03934978
C 4.52608811 -1.08956786 1.17969879
C 5.29620265 -0.13609649 0.30118416
C 6.04787886 -0.86375711 -0.82837930
C 6.75632560 0.08392186 -1.81146146
C 8.22747588 0.36660155 -1.48136618
C 8.48011366 1.09095925 -0.15453773
C 7.85328622 2.47688970 -0.08711438
H 6.18623204 -1.59215320 2.55904294
H 6.76940918 2.42232401 -0.15879787
H 8.20972965 3.10424493 -0.90118694
H 8.10240344 2.96710098 0.85125698
H 6.01299264 0.41283347 0.91882976
H 4.62218737 0.61086331 -0.13122489
H 5.33068250 -1.48040140 -1.37995459
H 6.77010145 -1.55894427 -0.39028618
H 6.20303600 1.02559100 -1.88038966
H 6.72196158 -0.36011919 -2.81191774
H 8.11310332 0.47973421 0.67553999
H 9.56218067 1.18026351 -0.01147700
H 8.77508517 -0.58207848 -1.47033988
H 8.65573823 0.96045339 -2.29609191
H -10.61843563 1.45321535 0.87939420
H 4.53654597 -3.13652652 3.88248486
*
$new_job
# 
!wB97X-D3 def2-TZVP def2/J RIJCOSX Grid5 FinalGrid6 TightSCF
%pal 
 nprocs 24
end
%elprop
   dipole     true
   quadrupole true
end
%tddft
  Mode sTDDFT
  nroots 2
  Ethresh 10.0
  maxcore 5000
end
* xyz 0 1 
C -8.78368008 3.23570696 -1.39424295
C -7.58000059 2.57913016 -1.31836482
C -7.41906804 1.46451287 -0.43355374
C -8.53619729 1.05187089 0.38087415
C -9.77413003 1.76466562 0.26946533
C -9.88848060 2.82431865 -0.59605641
N -6.22711609 0.81997058 -0.37453147
C -6.12074390 -0.23136565 0.47094129
C -7.23400334 -0.62186834 1.31050859
N -8.42722298 0.01974668 1.25231172
C -7.07106781 -1.70704266 2.22994338
C -5.86658617 -2.36177884 2.31393138
C -4.77498628 -1.99010439 1.48837044
C -4.87090643 -0.95940722 0.56630940
H -3.84720622 -2.55045738 1.57068025
H -5.73975094 -3.18505448 3.01240697
H -7.91020989 -1.99971502 2.85520388
H -10.82902664 3.36316821 -0.67888096
H -6.73731229 2.89286767 -1.92961068
H -8.90435297 4.07974017 -2.06862066
S 1.04222879 -0.08009432 -2.09650909
C 0.01886955 -0.59084898 -0.76085283
C 0.78747739 -1.04573598 0.29121703
C 2.20294792 -0.98516418 0.04952676
C 2.49172664 -0.48455511 -1.21019908
C -1.42313695 -0.50498492 -0.84315853
C -2.35484050 -0.86189194 0.11081703
C -3.71447431 -0.62999224 -0.29071851
C -3.79651191 -0.10312717 -1.56789734
S -2.22163049 0.11439426 -2.28324456
H -2.07623892 -1.25289671 1.08367764
H 0.35948048 -1.40336954 1.22254144
H -4.70016877 0.13343947 -2.11370362
H 3.46550055 -0.37735271 -1.66735338
C 5.14326762 -1.73854054 2.29820022
C 4.29630811 -2.54968776 3.00544392
S 2.69446040 -2.53917981 2.31797204
C 3.18675846 -1.42456827 1.03934978
C 4.52608811 -1.08956786 1.17969879
C 5.29620265 -0.13609649 0.30118416
C 6.04787886 -0.86375711 -0.82837930
C 6.75632560 0.08392186 -1.81146146
C 8.22747588 0.36660155 -1.48136618
C 8.48011366 1.09095925 -0.15453773
C 7.85328622 2.47688970 -0.08711438
H 6.18623204 -1.59215320 2.55904294
H 6.76940918 2.42232401 -0.15879787
H 8.20972965 3.10424493 -0.90118694
H 8.10240344 2.96710098 0.85125698
H 6.01299264 0.41283347 0.91882976
H 4.62218737 0.61086331 -0.13122489
H 5.33068250 -1.48040140 -1.37995459
H 6.77010145 -1.55894427 -0.39028618
H 6.20303600 1.02559100 -1.88038966
H 6.72196158 -0.36011919 -2.81191774
H 8.11310332 0.47973421 0.67553999
H 9.56218067 1.18026351 -0.01147700
H 8.77508517 -0.58207848 -1.47033988
H 8.65573823 0.96045339 -2.29609191
H -10.61843563 1.45321535 0.87939420
H 4.53654597 -3.13652652 3.88248486
*
