# 
!wB97X-D3 def2-TZVP def2/J RIJCOSX Grid5 FinalGrid6 TightSCF
%pal 
 nprocs 24
end
%tddft
  Mode sTDDFT
  nroots 2
  Ethresh 10.0
  maxcore 5000
  triplets true
end
* xyz 0 1 
C -5.56664797 -2.20716587 1.13970762
C -4.64312517 -1.25197715 0.72295683
C -5.10794289 -0.05442163 0.14622335
C -6.51199421 0.12070654 -0.00844742
C -7.44487226 -0.83781600 0.41597266
C -6.95021404 -2.00303893 0.99576734
C -4.47940459 1.13054135 -0.41781741
C -5.54296299 1.94556180 -0.90705264
N -6.75070329 1.33169424 -0.63433205
C -5.33158879 3.16166469 -1.57374829
C -4.01261277 3.56563639 -1.76714186
C -2.94628663 2.79102886 -1.29196599
C -3.14448664 1.58229341 -0.59849731
H -1.93016226 3.14687718 -1.43941636
H -7.66200277 1.69437897 -0.88619225
H -3.80389478 4.49702596 -2.28553121
H -3.58180218 -1.44333321 0.84237951
H -8.51222764 -0.67753718 0.28989248
H -7.64215524 -2.76881347 1.33585817
H -5.21196638 -3.13184125 1.58628853
C 3.62191756 -0.61725638 0.16090182
N 3.23289501 -1.31427161 1.23759504
O 1.89908668 -1.10694307 1.38493980
C 1.44830950 -0.29154539 0.41865966
C 2.49784156 0.05788907 -0.40670290
C 0.03498660 0.05957866 0.40033485
N -0.82720820 -0.40070289 1.31874513
O -2.04296994 0.11643658 1.00077387
C -1.95672363 0.88382704 -0.09575977
C -0.64285617 0.89994474 -0.52896718
H -0.23187913 1.41055438 -1.38759844
H 2.46426831 0.70976521 -1.26772062
C 6.94821144 -1.89855565 2.45076743
N 5.89299385 -1.48690142 1.75918751
C 6.11115283 -1.05187799 0.47612375
C 7.43834165 -1.02789536 -0.06384927
N 8.51394874 -1.46129194 0.67620007
C 8.26188582 -1.89280109 1.90565695
C 7.65391186 -0.54836688 -1.38596313
C 6.58587144 -0.10671865 -2.13873055
C 5.27620090 -0.13234673 -1.61484546
C 5.00955859 -0.59934722 -0.33133552
H 4.45584380 0.21110872 -2.23993808
H 6.74465821 0.26151285 -3.14896828
H 9.11100747 -2.24356912 2.50544695
H 6.77824685 -2.24483971 3.47770737
H -6.16497795 3.75865393 -1.93303938
H 8.66262985 -0.53560477 -1.79002531
*
$new_job
# 
!wB97X-D3 def2-TZVP def2/J RIJCOSX Grid5 FinalGrid6 TightSCF
%pal 
 nprocs 24
end
%elprop
   dipole     true
   quadrupole true
end
%tddft
  Mode sTDDFT
  nroots 2
  Ethresh 10.0
  maxcore 5000
end
* xyz 0 1 
C -5.56664797 -2.20716587 1.13970762
C -4.64312517 -1.25197715 0.72295683
C -5.10794289 -0.05442163 0.14622335
C -6.51199421 0.12070654 -0.00844742
C -7.44487226 -0.83781600 0.41597266
C -6.95021404 -2.00303893 0.99576734
C -4.47940459 1.13054135 -0.41781741
C -5.54296299 1.94556180 -0.90705264
N -6.75070329 1.33169424 -0.63433205
C -5.33158879 3.16166469 -1.57374829
C -4.01261277 3.56563639 -1.76714186
C -2.94628663 2.79102886 -1.29196599
C -3.14448664 1.58229341 -0.59849731
H -1.93016226 3.14687718 -1.43941636
H -7.66200277 1.69437897 -0.88619225
H -3.80389478 4.49702596 -2.28553121
H -3.58180218 -1.44333321 0.84237951
H -8.51222764 -0.67753718 0.28989248
H -7.64215524 -2.76881347 1.33585817
H -5.21196638 -3.13184125 1.58628853
C 3.62191756 -0.61725638 0.16090182
N 3.23289501 -1.31427161 1.23759504
O 1.89908668 -1.10694307 1.38493980
C 1.44830950 -0.29154539 0.41865966
C 2.49784156 0.05788907 -0.40670290
C 0.03498660 0.05957866 0.40033485
N -0.82720820 -0.40070289 1.31874513
O -2.04296994 0.11643658 1.00077387
C -1.95672363 0.88382704 -0.09575977
C -0.64285617 0.89994474 -0.52896718
H -0.23187913 1.41055438 -1.38759844
H 2.46426831 0.70976521 -1.26772062
C 6.94821144 -1.89855565 2.45076743
N 5.89299385 -1.48690142 1.75918751
C 6.11115283 -1.05187799 0.47612375
C 7.43834165 -1.02789536 -0.06384927
N 8.51394874 -1.46129194 0.67620007
C 8.26188582 -1.89280109 1.90565695
C 7.65391186 -0.54836688 -1.38596313
C 6.58587144 -0.10671865 -2.13873055
C 5.27620090 -0.13234673 -1.61484546
C 5.00955859 -0.59934722 -0.33133552
H 4.45584380 0.21110872 -2.23993808
H 6.74465821 0.26151285 -3.14896828
H 9.11100747 -2.24356912 2.50544695
H 6.77824685 -2.24483971 3.47770737
H -6.16497795 3.75865393 -1.93303938
H 8.66262985 -0.53560477 -1.79002531
*
