# 
!wB97X-D3 def2-TZVP def2/J RIJCOSX Grid5 FinalGrid6 TightSCF
%pal 
 nprocs 24
end
%tddft
  Mode sTDDFT
  nroots 2
  Ethresh 10.0
  maxcore 5000
  triplets true
end
* xyz 0 1 
C -5.01087083 0.12504497 2.87173788
C -4.09398855 0.18080779 1.82524373
C -4.56191034 0.11125846 0.49895117
C -5.96093195 -0.03732993 0.28289841
C -6.88745047 -0.08791706 1.33560868
C -6.39073841 -0.00079306 2.63338286
C -3.93852465 0.10876142 -0.81582455
C -4.99832087 -0.06859254 -1.75397976
N -6.20109214 -0.13395815 -1.07653373
C -4.78719800 -0.17557017 -3.13673557
C -3.47167708 -0.11625673 -3.59073217
C -2.40945703 0.06470670 -2.69530423
C -2.60897586 0.19989691 -1.30855682
H -1.39723904 0.12965122 -3.08519152
H -7.10833314 -0.26874617 -1.50571794
H -3.26287966 -0.20290579 -4.65308980
H -3.03500746 0.27133707 2.04359164
H -7.95126790 -0.19770373 1.14310503
H -7.07771970 -0.03736973 3.47455055
H -4.65380755 0.17959540 3.89633745
C 4.16483317 0.38110368 0.97625529
N 3.74502482 1.06514861 2.05287320
O 2.40106741 1.21080454 1.92699490
C 1.97724414 0.63064654 0.79306232
C 3.05649210 0.07770831 0.13250101
C 0.55738911 0.67613963 0.47185838
N -0.33593642 1.28114133 1.26870058
O -1.54800707 1.13106179 0.67321649
C -1.42889180 0.44371581 -0.47232412
C -0.09618253 0.12818229 -0.66881102
H 0.34304290 -0.42722748 -1.48454203
H 3.05574361 -0.45869450 -0.80501395
N 7.56972910 -1.68685760 -1.67651442
C 7.43155437 -1.00564638 -0.52381998
C 6.04493157 -0.68826623 -0.36164028
N 5.38358052 -1.18722428 -1.42216806
O 6.32347589 -1.78079430 -2.19420318
C 5.57840294 0.04210883 0.78389327
C 6.54978032 0.41040251 1.70352689
C 7.92938679 0.09158493 1.53686350
C 8.39599362 -0.60726356 0.44655686
H 8.62649686 0.41754219 2.30469981
H 6.25023575 0.96498767 2.58878030
H -5.61773497 -0.30943714 -3.82398262
H 9.44963845 -0.84438407 0.33039552
*
$new_job
# 
!wB97X-D3 def2-TZVP def2/J RIJCOSX Grid5 FinalGrid6 TightSCF
%pal 
 nprocs 24
end
%elprop
   dipole     true
   quadrupole true
end
%tddft
  Mode sTDDFT
  nroots 2
  Ethresh 10.0
  maxcore 5000
end
* xyz 0 1 
C -5.01087083 0.12504497 2.87173788
C -4.09398855 0.18080779 1.82524373
C -4.56191034 0.11125846 0.49895117
C -5.96093195 -0.03732993 0.28289841
C -6.88745047 -0.08791706 1.33560868
C -6.39073841 -0.00079306 2.63338286
C -3.93852465 0.10876142 -0.81582455
C -4.99832087 -0.06859254 -1.75397976
N -6.20109214 -0.13395815 -1.07653373
C -4.78719800 -0.17557017 -3.13673557
C -3.47167708 -0.11625673 -3.59073217
C -2.40945703 0.06470670 -2.69530423
C -2.60897586 0.19989691 -1.30855682
H -1.39723904 0.12965122 -3.08519152
H -7.10833314 -0.26874617 -1.50571794
H -3.26287966 -0.20290579 -4.65308980
H -3.03500746 0.27133707 2.04359164
H -7.95126790 -0.19770373 1.14310503
H -7.07771970 -0.03736973 3.47455055
H -4.65380755 0.17959540 3.89633745
C 4.16483317 0.38110368 0.97625529
N 3.74502482 1.06514861 2.05287320
O 2.40106741 1.21080454 1.92699490
C 1.97724414 0.63064654 0.79306232
C 3.05649210 0.07770831 0.13250101
C 0.55738911 0.67613963 0.47185838
N -0.33593642 1.28114133 1.26870058
O -1.54800707 1.13106179 0.67321649
C -1.42889180 0.44371581 -0.47232412
C -0.09618253 0.12818229 -0.66881102
H 0.34304290 -0.42722748 -1.48454203
H 3.05574361 -0.45869450 -0.80501395
N 7.56972910 -1.68685760 -1.67651442
C 7.43155437 -1.00564638 -0.52381998
C 6.04493157 -0.68826623 -0.36164028
N 5.38358052 -1.18722428 -1.42216806
O 6.32347589 -1.78079430 -2.19420318
C 5.57840294 0.04210883 0.78389327
C 6.54978032 0.41040251 1.70352689
C 7.92938679 0.09158493 1.53686350
C 8.39599362 -0.60726356 0.44655686
H 8.62649686 0.41754219 2.30469981
H 6.25023575 0.96498767 2.58878030
H -5.61773497 -0.30943714 -3.82398262
H 9.44963845 -0.84438407 0.33039552
*
