# 
!wB97X-D3 def2-TZVP def2/J RIJCOSX Grid5 FinalGrid6 TightSCF
%pal 
 nprocs 24
end
%tddft
  Mode sTDDFT
  nroots 2
  Ethresh 10.0
  maxcore 5000
  triplets true
end
* xyz 0 1 
C 7.99222411 1.49736509 1.82479769
C 7.37330526 0.55765789 1.00316640
C 8.16813097 -0.27719565 0.19678620
C 9.58391545 -0.15997904 0.28796978
C 10.21017786 0.78856044 1.11070376
C 9.39181139 1.62061706 1.87150566
C 7.90162861 -1.36324119 -0.73290066
C 9.17447862 -1.87193270 -1.12086480
N 10.16850663 -1.12039342 -0.51920460
C 9.32648297 -2.98265275 -1.96503765
C 8.16357134 -3.60255213 -2.41784864
C 6.89801825 -3.10977680 -2.06992526
C 6.73166816 -1.97773165 -1.25002888
H 6.01442550 -3.59816638 -2.47236829
H 11.16355703 -1.28081057 -0.61627402
H 8.23490718 -4.47230246 -3.06525123
H 6.29075781 0.47062665 1.00684315
H 11.29326928 0.86351259 1.15972040
H 9.84135465 2.36626625 2.52186294
H 7.38251305 2.14581046 2.44803206
N 0.79983795 0.23641344 -0.61981863
C 2.09257543 0.67752881 -0.86830932
C 2.21333693 2.03878415 -1.08926429
S 0.65239578 2.80960217 -0.98766009
C -0.09120228 1.21012492 -0.63842015
C 3.18344570 -0.28665247 -0.89110957
S 4.87324071 0.19521098 -1.17586367
C 5.36231487 -1.49216951 -1.01594809
C 4.23724822 -2.26315185 -0.79418277
N 3.03848296 -1.59115790 -0.70901979
H 3.12282455 2.58570071 -1.30415401
H 4.25758698 -3.34260089 -0.65500742
C -4.16128150 -1.34094749 0.86159702
C -5.54125503 -1.37481643 1.05978563
C -6.34578489 -0.26800534 0.73457680
C -5.77865666 0.89096372 0.20711001
C -4.36451260 0.95849504 -0.01225639
C -3.54076331 -0.16641913 0.31310224
C -3.74818287 2.14069895 -0.54919123
C -2.37601035 2.18065146 -0.73814652
C -1.53192611 1.07556735 -0.42424801
C -2.11821500 -0.10075771 0.09707023
N -1.31147113 -1.14061606 0.58203883
C -0.68484668 -2.00776261 -0.14062666
C 0.25836219 -2.97931767 0.51391974
N -4.52789901 3.30475716 -0.74804528
C -4.58843702 3.93441951 -1.87487034
C -5.39526392 5.20688788 -1.95930394
N -6.60720626 1.94594307 -0.24138284
C -7.42817764 2.58204469 0.52720888
C -8.31764901 3.64451447 -0.07037260
N -3.40799523 -2.51878713 1.07093049
C -3.29258162 -3.09408117 2.22156313
C -2.53588708 -4.39525768 2.32135087
C -3.83829440 -2.53388534 3.52059896
C -0.83154882 -2.11808431 -1.64257486
C -3.93310853 3.47128785 -3.16202390
C -7.54624473 2.37467346 2.02511939
H -6.00069839 -2.27898557 1.44887846
H -1.92538932 3.09417022 -1.11934820
H 0.13532088 -1.97560934 -2.12351726
H -1.19273185 -3.10904309 -1.91738692
H -1.52580476 -1.37411889 -2.02440582
H 0.17738882 -2.94001537 1.59658032
H 0.06877133 -3.99886245 0.17971209
H 1.28460727 -2.72392285 0.23065448
H -4.13332301 -1.49422492 3.40770665
H -4.70977881 -3.10303765 3.84584104
H -3.09227827 -2.60724014 4.31029693
H -3.15451364 -5.16877139 2.77656189
H -1.65538820 -4.27788698 2.95362150
H -2.21306304 -4.73728521 1.34231549
H -8.08008342 4.62247934 0.34981791
H -9.36544542 3.44659563 0.15599674
H -8.19657893 3.69555229 -1.14856771
H -7.61438484 3.33263903 2.53820279
H -6.69453914 1.82387546 2.41522520
H -8.45153734 1.81552226 2.26428324
H -3.64705768 2.42439130 -3.10498649
H -4.60863106 3.60944909 -4.00466952
H -3.03636069 4.05687539 -3.36770703
H -6.22836708 5.08637679 -2.65268970
H -5.79435285 5.48276381 -0.98744791
H -4.78545553 6.02906414 -2.33408689
H 10.31014162 -3.34968761 -2.24375280
H -7.42192133 -0.32494404 0.87191573
*
$new_job
# 
!wB97X-D3 def2-TZVP def2/J RIJCOSX Grid5 FinalGrid6 TightSCF
%pal 
 nprocs 24
end
%elprop
   dipole     true
   quadrupole true
end
%tddft
  Mode sTDDFT
  nroots 2
  Ethresh 10.0
  maxcore 5000
end
* xyz 0 1 
C 7.99222411 1.49736509 1.82479769
C 7.37330526 0.55765789 1.00316640
C 8.16813097 -0.27719565 0.19678620
C 9.58391545 -0.15997904 0.28796978
C 10.21017786 0.78856044 1.11070376
C 9.39181139 1.62061706 1.87150566
C 7.90162861 -1.36324119 -0.73290066
C 9.17447862 -1.87193270 -1.12086480
N 10.16850663 -1.12039342 -0.51920460
C 9.32648297 -2.98265275 -1.96503765
C 8.16357134 -3.60255213 -2.41784864
C 6.89801825 -3.10977680 -2.06992526
C 6.73166816 -1.97773165 -1.25002888
H 6.01442550 -3.59816638 -2.47236829
H 11.16355703 -1.28081057 -0.61627402
H 8.23490718 -4.47230246 -3.06525123
H 6.29075781 0.47062665 1.00684315
H 11.29326928 0.86351259 1.15972040
H 9.84135465 2.36626625 2.52186294
H 7.38251305 2.14581046 2.44803206
N 0.79983795 0.23641344 -0.61981863
C 2.09257543 0.67752881 -0.86830932
C 2.21333693 2.03878415 -1.08926429
S 0.65239578 2.80960217 -0.98766009
C -0.09120228 1.21012492 -0.63842015
C 3.18344570 -0.28665247 -0.89110957
S 4.87324071 0.19521098 -1.17586367
C 5.36231487 -1.49216951 -1.01594809
C 4.23724822 -2.26315185 -0.79418277
N 3.03848296 -1.59115790 -0.70901979
H 3.12282455 2.58570071 -1.30415401
H 4.25758698 -3.34260089 -0.65500742
C -4.16128150 -1.34094749 0.86159702
C -5.54125503 -1.37481643 1.05978563
C -6.34578489 -0.26800534 0.73457680
C -5.77865666 0.89096372 0.20711001
C -4.36451260 0.95849504 -0.01225639
C -3.54076331 -0.16641913 0.31310224
C -3.74818287 2.14069895 -0.54919123
C -2.37601035 2.18065146 -0.73814652
C -1.53192611 1.07556735 -0.42424801
C -2.11821500 -0.10075771 0.09707023
N -1.31147113 -1.14061606 0.58203883
C -0.68484668 -2.00776261 -0.14062666
C 0.25836219 -2.97931767 0.51391974
N -4.52789901 3.30475716 -0.74804528
C -4.58843702 3.93441951 -1.87487034
C -5.39526392 5.20688788 -1.95930394
N -6.60720626 1.94594307 -0.24138284
C -7.42817764 2.58204469 0.52720888
C -8.31764901 3.64451447 -0.07037260
N -3.40799523 -2.51878713 1.07093049
C -3.29258162 -3.09408117 2.22156313
C -2.53588708 -4.39525768 2.32135087
C -3.83829440 -2.53388534 3.52059896
C -0.83154882 -2.11808431 -1.64257486
C -3.93310853 3.47128785 -3.16202390
C -7.54624473 2.37467346 2.02511939
H -6.00069839 -2.27898557 1.44887846
H -1.92538932 3.09417022 -1.11934820
H 0.13532088 -1.97560934 -2.12351726
H -1.19273185 -3.10904309 -1.91738692
H -1.52580476 -1.37411889 -2.02440582
H 0.17738882 -2.94001537 1.59658032
H 0.06877133 -3.99886245 0.17971209
H 1.28460727 -2.72392285 0.23065448
H -4.13332301 -1.49422492 3.40770665
H -4.70977881 -3.10303765 3.84584104
H -3.09227827 -2.60724014 4.31029693
H -3.15451364 -5.16877139 2.77656189
H -1.65538820 -4.27788698 2.95362150
H -2.21306304 -4.73728521 1.34231549
H -8.08008342 4.62247934 0.34981791
H -9.36544542 3.44659563 0.15599674
H -8.19657893 3.69555229 -1.14856771
H -7.61438484 3.33263903 2.53820279
H -6.69453914 1.82387546 2.41522520
H -8.45153734 1.81552226 2.26428324
H -3.64705768 2.42439130 -3.10498649
H -4.60863106 3.60944909 -4.00466952
H -3.03636069 4.05687539 -3.36770703
H -6.22836708 5.08637679 -2.65268970
H -5.79435285 5.48276381 -0.98744791
H -4.78545553 6.02906414 -2.33408689
H 10.31014162 -3.34968761 -2.24375280
H -7.42192133 -0.32494404 0.87191573
*
