# 
!wB97X-D3 def2-TZVP def2/J RIJCOSX Grid5 FinalGrid6 TightSCF
%pal 
 nprocs 24
end
%tddft
  Mode sTDDFT
  nroots 2
  Ethresh 10.0
  maxcore 5000
  triplets true
end
* xyz 0 1 
C -4.77210660 -2.81874206 0.45235623
C -4.04017616 -1.65249484 0.24485601
C -4.72350234 -0.42796758 0.11843046
C -6.14320123 -0.43198750 0.21934491
C -6.88367368 -1.60678133 0.42137916
C -6.17561269 -2.80039170 0.53523356
C -4.32551880 0.95839138 -0.07132952
C -5.53233998 1.71926695 -0.05512383
N -6.60838659 0.86605444 0.10230519
C -5.55952880 3.11746930 -0.16237059
C -4.33600005 3.77472694 -0.27326072
C -3.13406210 3.05653786 -0.29014158
C -3.09082307 1.65104960 -0.20996233
H -2.19961637 3.60333283 -0.39409509
H -7.57829754 1.15140219 0.15894072
H -4.30988753 4.85778483 -0.35122830
H -2.95693936 -1.69392286 0.17872310
H -7.96788948 -1.58301335 0.49121554
H -6.71459988 -3.73091441 0.69262206
H -4.24936842 -3.76636798 0.54946924
S 2.81007728 -1.33563087 -0.70102366
C 1.98429045 0.15831798 -0.21558310
N 2.81126511 1.09508868 0.23383848
N 4.12007090 0.71879443 0.22977550
C 4.31547936 -0.51698137 -0.22436877
C 0.55280493 0.32010800 -0.30658808
N -0.26766328 -0.61883781 -0.76159236
N -1.58069212 -0.23890170 -0.75423498
C -1.78695077 0.98524593 -0.29176687
S -0.27653065 1.80461819 0.17940254
C 5.60314617 -1.15290176 -0.33048202
S 5.76887257 -2.78272445 -0.93986277
C 7.49298509 -2.79579580 -0.75924902
C 7.94161511 -1.58020711 -0.24316256
C 6.87216785 -0.63908801 0.00385750
N 9.25974657 -1.25870756 0.02248667
C 9.45722331 -0.04562138 0.51055975
C 8.39153706 0.88904561 0.75550676
N 7.11910927 0.61515096 0.51312241
H 10.49052384 0.24803106 0.73481275
H 8.62815100 1.87982374 1.16225820
H -6.49758242 3.66518083 -0.14835890
H 8.09188402 -3.65724030 -1.02631170
*
$new_job
# 
!wB97X-D3 def2-TZVP def2/J RIJCOSX Grid5 FinalGrid6 TightSCF
%pal 
 nprocs 24
end
%elprop
   dipole     true
   quadrupole true
end
%tddft
  Mode sTDDFT
  nroots 2
  Ethresh 10.0
  maxcore 5000
end
* xyz 0 1 
C -4.77210660 -2.81874206 0.45235623
C -4.04017616 -1.65249484 0.24485601
C -4.72350234 -0.42796758 0.11843046
C -6.14320123 -0.43198750 0.21934491
C -6.88367368 -1.60678133 0.42137916
C -6.17561269 -2.80039170 0.53523356
C -4.32551880 0.95839138 -0.07132952
C -5.53233998 1.71926695 -0.05512383
N -6.60838659 0.86605444 0.10230519
C -5.55952880 3.11746930 -0.16237059
C -4.33600005 3.77472694 -0.27326072
C -3.13406210 3.05653786 -0.29014158
C -3.09082307 1.65104960 -0.20996233
H -2.19961637 3.60333283 -0.39409509
H -7.57829754 1.15140219 0.15894072
H -4.30988753 4.85778483 -0.35122830
H -2.95693936 -1.69392286 0.17872310
H -7.96788948 -1.58301335 0.49121554
H -6.71459988 -3.73091441 0.69262206
H -4.24936842 -3.76636798 0.54946924
S 2.81007728 -1.33563087 -0.70102366
C 1.98429045 0.15831798 -0.21558310
N 2.81126511 1.09508868 0.23383848
N 4.12007090 0.71879443 0.22977550
C 4.31547936 -0.51698137 -0.22436877
C 0.55280493 0.32010800 -0.30658808
N -0.26766328 -0.61883781 -0.76159236
N -1.58069212 -0.23890170 -0.75423498
C -1.78695077 0.98524593 -0.29176687
S -0.27653065 1.80461819 0.17940254
C 5.60314617 -1.15290176 -0.33048202
S 5.76887257 -2.78272445 -0.93986277
C 7.49298509 -2.79579580 -0.75924902
C 7.94161511 -1.58020711 -0.24316256
C 6.87216785 -0.63908801 0.00385750
N 9.25974657 -1.25870756 0.02248667
C 9.45722331 -0.04562138 0.51055975
C 8.39153706 0.88904561 0.75550676
N 7.11910927 0.61515096 0.51312241
H 10.49052384 0.24803106 0.73481275
H 8.62815100 1.87982374 1.16225820
H -6.49758242 3.66518083 -0.14835890
H 8.09188402 -3.65724030 -1.02631170
*
