# 
!wB97X-D3 def2-TZVP def2/J RIJCOSX Grid5 FinalGrid6 TightSCF
%pal 
 nprocs 24
end
%tddft
  Mode sTDDFT
  nroots 2
  Ethresh 10.0
  maxcore 5000
  triplets true
end
* xyz 0 1 
C -4.20843073 -3.96685533 1.27059958
C -4.08103742 -2.61067012 0.98160543
C -5.21285592 -1.77888167 1.08105264
C -6.45392445 -2.36822547 1.45320843
C -6.58364765 -3.73348354 1.75062212
C -5.44059666 -4.52290636 1.65694995
C -5.48024854 -0.36842749 0.84362651
C -6.87874909 -0.19058630 1.06091407
N -7.43777973 -1.39514091 1.44370261
C -7.53244043 1.03689363 0.87647046
C -6.76195917 2.11531517 0.44800959
C -5.38467779 1.97473419 0.23305057
C -4.71141315 0.75608488 0.43963861
H -4.80909641 2.84200234 -0.07891863
H -8.41797438 -1.54733524 1.64744157
H -7.22975829 3.08190575 0.28500278
H -3.11719054 -2.21434879 0.67946302
H -7.54237062 -4.15771877 2.03643126
H -5.50216006 -5.58494609 1.87857565
H -3.33720468 -4.61162420 1.19606245
C 2.19007178 1.99976026 -1.46969618
N 1.36158709 2.83481517 -2.11755706
O 0.10170073 2.52950797 -1.70639619
C 0.13452290 1.52302316 -0.81769688
C 1.44467195 1.13366369 -0.61885452
C -1.12854152 1.05589522 -0.26336614
N -1.18274845 0.05749571 0.63106766
O -2.49607819 -0.12144898 0.93067836
C -3.25831640 0.73956257 0.24016737
C -2.44019386 1.53563733 -0.54160179
H -2.72840213 2.32131776 -1.22434682
H 1.81105779 0.35329455 0.03246539
S 11.73558969 0.25066430 -0.98269030
C 9.96187452 0.33882857 -0.86372364
C 9.33235190 -0.52523729 -0.02812435
S 10.32688790 -1.68313440 0.88737187
C 11.95808138 -1.13314162 0.21940535
S 7.56311935 -0.43246069 0.08620305
C 7.40989497 0.91398774 -1.08968938
S 8.96473948 1.49152713 -1.77438946
C 6.21221547 1.45239536 -1.43337422
S 6.04406146 2.79354878 -2.60287984
C 4.28391602 2.89603776 -2.49731482
C 3.63673464 2.03908513 -1.66595589
S 4.65744626 0.88593156 -0.75833323
H 12.45809889 -1.97481105 -0.27430301
H 12.60384275 -0.80685410 1.04324733
H -8.59972933 1.13784234 1.05175839
H 3.76545865 3.63738038 -3.09617970
*
$new_job
# 
!wB97X-D3 def2-TZVP def2/J RIJCOSX Grid5 FinalGrid6 TightSCF
%pal 
 nprocs 24
end
%elprop
   dipole     true
   quadrupole true
end
%tddft
  Mode sTDDFT
  nroots 2
  Ethresh 10.0
  maxcore 5000
end
* xyz 0 1 
C -4.20843073 -3.96685533 1.27059958
C -4.08103742 -2.61067012 0.98160543
C -5.21285592 -1.77888167 1.08105264
C -6.45392445 -2.36822547 1.45320843
C -6.58364765 -3.73348354 1.75062212
C -5.44059666 -4.52290636 1.65694995
C -5.48024854 -0.36842749 0.84362651
C -6.87874909 -0.19058630 1.06091407
N -7.43777973 -1.39514091 1.44370261
C -7.53244043 1.03689363 0.87647046
C -6.76195917 2.11531517 0.44800959
C -5.38467779 1.97473419 0.23305057
C -4.71141315 0.75608488 0.43963861
H -4.80909641 2.84200234 -0.07891863
H -8.41797438 -1.54733524 1.64744157
H -7.22975829 3.08190575 0.28500278
H -3.11719054 -2.21434879 0.67946302
H -7.54237062 -4.15771877 2.03643126
H -5.50216006 -5.58494609 1.87857565
H -3.33720468 -4.61162420 1.19606245
C 2.19007178 1.99976026 -1.46969618
N 1.36158709 2.83481517 -2.11755706
O 0.10170073 2.52950797 -1.70639619
C 0.13452290 1.52302316 -0.81769688
C 1.44467195 1.13366369 -0.61885452
C -1.12854152 1.05589522 -0.26336614
N -1.18274845 0.05749571 0.63106766
O -2.49607819 -0.12144898 0.93067836
C -3.25831640 0.73956257 0.24016737
C -2.44019386 1.53563733 -0.54160179
H -2.72840213 2.32131776 -1.22434682
H 1.81105779 0.35329455 0.03246539
S 11.73558969 0.25066430 -0.98269030
C 9.96187452 0.33882857 -0.86372364
C 9.33235190 -0.52523729 -0.02812435
S 10.32688790 -1.68313440 0.88737187
C 11.95808138 -1.13314162 0.21940535
S 7.56311935 -0.43246069 0.08620305
C 7.40989497 0.91398774 -1.08968938
S 8.96473948 1.49152713 -1.77438946
C 6.21221547 1.45239536 -1.43337422
S 6.04406146 2.79354878 -2.60287984
C 4.28391602 2.89603776 -2.49731482
C 3.63673464 2.03908513 -1.66595589
S 4.65744626 0.88593156 -0.75833323
H 12.45809889 -1.97481105 -0.27430301
H 12.60384275 -0.80685410 1.04324733
H -8.59972933 1.13784234 1.05175839
H 3.76545865 3.63738038 -3.09617970
*
