# 
!wB97X-D3 def2-TZVP def2/J RIJCOSX Grid5 FinalGrid6 TightSCF
%pal 
 nprocs 24
end
%tddft
  Mode sTDDFT
  nroots 2
  Ethresh 10.0
  maxcore 5000
  triplets true
end
* xyz 0 1 
C -8.47547904 -0.08860796 -1.76859627
C -7.13780692 0.18965195 -1.63123465
C -6.50766929 0.09459683 -0.34863262
C -7.29756424 -0.30699537 0.78995216
C -8.69004105 -0.58725271 0.60168098
C -9.25691868 -0.47799635 -0.64401347
N -5.18744854 0.38015905 -0.22567604
C -4.63397738 0.28293724 1.00546728
C -5.42243448 -0.15187139 2.13944970
N -6.74282854 -0.43650083 2.01958719
C -4.79323918 -0.29184919 3.41774268
C -3.45403416 -0.02105709 3.55800963
C -2.67800230 0.41360642 2.45340687
C -3.22862310 0.58474312 1.19276087
H -1.62698046 0.63968081 2.61402140
H -2.97347643 -0.12808028 4.52719472
H -5.38939183 -0.61436840 4.26706549
H -10.31376862 -0.69085094 -0.78399583
H -6.54217299 0.48864777 -2.49030546
H -8.95227546 -0.01307321 -2.74260481
S 1.61626145 2.09599306 -2.93913087
C 1.03492585 1.32492108 -1.46819377
C 2.07307128 0.70752031 -0.80039906
C 3.34445625 0.84248306 -1.45489751
C 3.25140221 1.57313017 -2.63029473
C -0.36074026 1.38454686 -1.09108100
C -0.96874533 0.83227733 0.01838064
C -2.38447899 1.06718084 0.08137537
C -2.83516657 1.81591315 -0.99185502
S -1.54048301 2.23374512 -2.08196452
H -0.42503513 0.24995784 0.75476348
H 1.93903035 0.16957983 0.13290388
H -3.84814578 2.15386445 -1.16543436
H 4.06101869 1.81568774 -3.30643497
S 4.61211087 -0.64525469 0.57411533
C 6.32953921 -0.90200889 0.41644380
C 6.83650236 -0.30930648 -0.73514241
C 5.85102774 0.35900554 -1.50585083
C 4.58356862 0.27756366 -0.94165432
C 7.40906559 -1.54942517 1.12087732
C 8.58747371 -1.36057515 0.40940567
C 8.32406598 -0.55171765 -0.83860700
C 9.71752985 -1.96663142 1.02840254
C 9.38548091 -2.60789086 2.20100479
S 7.67121974 -2.48058253 2.57138367
H 10.72762441 -1.93545718 0.63456897
H 6.04853011 0.88116612 -2.43604776
H 8.89738693 0.38403417 -0.85826789
H 8.59401792 -1.09543696 -1.75304664
H -9.28807116 -0.88644905 1.45882534
H 10.05938890 -3.14325377 2.85757203
*
$new_job
# 
!wB97X-D3 def2-TZVP def2/J RIJCOSX Grid5 FinalGrid6 TightSCF
%pal 
 nprocs 24
end
%elprop
   dipole     true
   quadrupole true
end
%tddft
  Mode sTDDFT
  nroots 2
  Ethresh 10.0
  maxcore 5000
end
* xyz 0 1 
C -8.47547904 -0.08860796 -1.76859627
C -7.13780692 0.18965195 -1.63123465
C -6.50766929 0.09459683 -0.34863262
C -7.29756424 -0.30699537 0.78995216
C -8.69004105 -0.58725271 0.60168098
C -9.25691868 -0.47799635 -0.64401347
N -5.18744854 0.38015905 -0.22567604
C -4.63397738 0.28293724 1.00546728
C -5.42243448 -0.15187139 2.13944970
N -6.74282854 -0.43650083 2.01958719
C -4.79323918 -0.29184919 3.41774268
C -3.45403416 -0.02105709 3.55800963
C -2.67800230 0.41360642 2.45340687
C -3.22862310 0.58474312 1.19276087
H -1.62698046 0.63968081 2.61402140
H -2.97347643 -0.12808028 4.52719472
H -5.38939183 -0.61436840 4.26706549
H -10.31376862 -0.69085094 -0.78399583
H -6.54217299 0.48864777 -2.49030546
H -8.95227546 -0.01307321 -2.74260481
S 1.61626145 2.09599306 -2.93913087
C 1.03492585 1.32492108 -1.46819377
C 2.07307128 0.70752031 -0.80039906
C 3.34445625 0.84248306 -1.45489751
C 3.25140221 1.57313017 -2.63029473
C -0.36074026 1.38454686 -1.09108100
C -0.96874533 0.83227733 0.01838064
C -2.38447899 1.06718084 0.08137537
C -2.83516657 1.81591315 -0.99185502
S -1.54048301 2.23374512 -2.08196452
H -0.42503513 0.24995784 0.75476348
H 1.93903035 0.16957983 0.13290388
H -3.84814578 2.15386445 -1.16543436
H 4.06101869 1.81568774 -3.30643497
S 4.61211087 -0.64525469 0.57411533
C 6.32953921 -0.90200889 0.41644380
C 6.83650236 -0.30930648 -0.73514241
C 5.85102774 0.35900554 -1.50585083
C 4.58356862 0.27756366 -0.94165432
C 7.40906559 -1.54942517 1.12087732
C 8.58747371 -1.36057515 0.40940567
C 8.32406598 -0.55171765 -0.83860700
C 9.71752985 -1.96663142 1.02840254
C 9.38548091 -2.60789086 2.20100479
S 7.67121974 -2.48058253 2.57138367
H 10.72762441 -1.93545718 0.63456897
H 6.04853011 0.88116612 -2.43604776
H 8.89738693 0.38403417 -0.85826789
H 8.59401792 -1.09543696 -1.75304664
H -9.28807116 -0.88644905 1.45882534
H 10.05938890 -3.14325377 2.85757203
*
